  PAW_PBE Al 04Jan2001                   
   3.00000000000000     
 parameters from PSCTR are:
   VRHFIN =Al: s2p1
   LEXCH  = PE
   EATOM  =    53.5387 eV,    3.9350 Ry

   TITEL  = PAW_PBE Al 04Jan2001
   LULTRA =        F    use ultrasoft PP ?
   IUNSCR =        1    unscreen: 0-lin 1-nonlin 2-no
   RPACOR =    1.500    partial core radius
   POMASS =   26.981; ZVAL   =    3.000    mass and valenz
   RCORE  =    1.900    outmost cutoff radius
   RWIGS  =    2.650; RWIGS  =    1.402    wigner-seitz radius (au A)
   ENMAX  =  240.300; ENMIN  =  180.225 eV
   ICORE  =        2    local potential
   LCOR   =        T    correct aug charges
   LPAW   =        T    paw PP
   EAUG   =  291.052
   DEXC   =    0.000
   RMAX   =    1.939    core radius for proj-oper
   RAUG   =    1.300    factor for augmentation sphere
   RDEP   =    1.966    radius for radial grids
   RDEPT  =    1.856    core radius for aug-charge
 
   Atomic configuration
    6 entries
     n  l   j            E        occ.
     1  0  0.50     -1511.1048   2.0000
     2  0  0.50      -108.1629   2.0000
     2  1  1.50       -69.6402   6.0000
     3  0  0.50        -7.7528   2.0000
     3  1  1.50        -2.7121   1.0000
     3  2  2.50        -2.7212   0.0000
   Description
     l       E           TYP  RCUT    TYP  RCUT
     0     -7.7528455     23  1.900
     0     -3.3096929     23  1.900
     1     -2.7120682     23  1.900
     1     13.6058260     23  1.900
     2     -2.7211652      7  1.900
   Error from kinetic energy argument (eV)
   NDATA  =      100
   STEP   =   20.000   1.050
  2.17      1.95      1.85      1.68      1.61      1.48      1.37      1.32
  1.24      1.17      1.14      1.08      1.03     0.977     0.931     0.886
 0.843     0.801     0.758     0.695     0.653     0.611     0.549     0.509
 0.469     0.413     0.359     0.325     0.278     0.235     0.197     0.163
 0.133     0.107     0.858E-01 0.676E-01 0.483E-01 0.370E-01 0.256E-01 0.193E-01
 0.132E-01 0.922E-02 0.676E-02 0.535E-02 0.461E-02 0.426E-02 0.410E-02 0.397E-02
 0.383E-02 0.358E-02 0.322E-02 0.288E-02 0.243E-02 0.199E-02 0.152E-02 0.120E-02
 0.964E-03 0.771E-03 0.660E-03 0.604E-03 0.576E-03 0.555E-03 0.527E-03 0.479E-03
 0.425E-03 0.355E-03 0.288E-03 0.231E-03 0.185E-03 0.161E-03 0.147E-03 0.140E-03
 0.133E-03 0.123E-03 0.108E-03 0.913E-04 0.740E-04 0.607E-04 0.519E-04 0.482E-04
 0.459E-04 0.430E-04 0.384E-04 0.320E-04 0.261E-04 0.219E-04 0.198E-04 0.188E-04
 0.176E-04 0.155E-04 0.128E-04 0.107E-04 0.933E-05 0.881E-05 0.825E-05 0.723E-05
 0.594E-05 0.506E-05 0.462E-05 0.439E-05
END of PSCTR-controll parameters
 local part
   98.2657514061040     
 -0.11196033E+01 -0.11177556E+01 -0.11049384E+01 -0.10835849E+01 -0.10537093E+01
 -0.10153328E+01 -0.96848549E+00 -0.91320818E+00 -0.84955352E+00 -0.77758744E+00
 -0.69738997E+00 -0.60905572E+00 -0.51269392E+00 -0.40842812E+00 -0.29639568E+00
 -0.17674713E+00 -0.49645655E-01  0.84733375E-01  0.22620257E+00  0.37456246E+00
  0.52960127E+00  0.69109437E+00  0.85880387E+00  0.10324780E+01  0.12118507E+01
  0.13966414E+01  0.15865550E+01  0.17812815E+01  0.19804973E+01  0.21838643E+01
  0.23910317E+01  0.26016356E+01  0.28152999E+01  0.30316370E+01  0.32502481E+01
  0.34707238E+01  0.36926447E+01  0.39155821E+01  0.41390989E+01  0.43627504E+01
  0.45860853E+01  0.48086471E+01  0.50299751E+01  0.52496061E+01  0.54670754E+01
  0.56819186E+01  0.58936731E+01  0.61018790E+01  0.63060813E+01  0.65058308E+01
  0.67006858E+01  0.68902137E+01  0.70739924E+01  0.72516120E+01  0.74226762E+01
  0.75868042E+01  0.77436322E+01  0.78928144E+01  0.80340254E+01  0.81669608E+01
  0.82913386E+01  0.84069009E+01  0.85134143E+01  0.86106713E+01  0.86984911E+01
  0.87767206E+01  0.88452347E+01  0.89039374E+01  0.89527620E+01  0.89916718E+01
  0.90206599E+01  0.90397497E+01  0.90489948E+01  0.90484786E+01  0.90383142E+01
  0.90186439E+01  0.89896382E+01  0.89514955E+01  0.89044411E+01  0.88487262E+01
  0.87846266E+01  0.87124420E+01  0.86324942E+01  0.85451259E+01  0.84506992E+01
  0.83495940E+01  0.82422061E+01  0.81289457E+01  0.80102353E+01  0.78865080E+01
  0.77582052E+01  0.76257753E+01  0.74896710E+01  0.73503479E+01  0.72082621E+01
  0.70638689E+01  0.69176201E+01  0.67699626E+01  0.66213364E+01  0.64721729E+01
  0.63228931E+01  0.61739059E+01  0.60256062E+01  0.58783742E+01  0.57325732E+01
  0.55885487E+01  0.54466273E+01  0.53071156E+01  0.51702991E+01  0.50364416E+01
  0.49057844E+01  0.47785462E+01  0.46549219E+01  0.45350828E+01  0.44191767E+01
  0.43073271E+01  0.41996340E+01  0.40961738E+01  0.39969999E+01  0.39021430E+01
  0.38116115E+01  0.37253930E+01  0.36434542E+01  0.35657424E+01  0.34921863E+01
  0.34226971E+01  0.33571694E+01  0.32954831E+01  0.32375037E+01  0.31830844E+01
  0.31320672E+01  0.30842840E+01  0.30395585E+01  0.29977073E+01  0.29585414E+01
  0.29218677E+01  0.28874903E+01  0.28552118E+01  0.28248347E+01  0.27961629E+01
  0.27690024E+01  0.27431629E+01  0.27184590E+01  0.26947108E+01  0.26717452E+01
  0.26493969E+01  0.26275089E+01  0.26059336E+01  0.25845330E+01  0.25631799E+01
  0.25417577E+01  0.25201611E+01  0.24982963E+01  0.24760814E+01  0.24534460E+01
  0.24303316E+01  0.24066915E+01  0.23824904E+01  0.23577043E+01  0.23323203E+01
  0.23063360E+01  0.22797592E+01  0.22526073E+01  0.22249067E+01  0.21966922E+01
  0.21680063E+01  0.21388986E+01  0.21094247E+01  0.20796458E+01  0.20496280E+01
  0.20194411E+01  0.19891578E+01  0.19588535E+01  0.19286048E+01  0.18984891E+01
  0.18685840E+01  0.18389659E+01  0.18097100E+01  0.17808892E+01  0.17525735E+01
  0.17248297E+01  0.16977204E+01  0.16713039E+01  0.16456335E+01  0.16207571E+01
  0.15967172E+01  0.15735503E+01  0.15512867E+01  0.15299505E+01  0.15095593E+01
  0.14901245E+01  0.14716508E+01  0.14541366E+01  0.14375742E+01  0.14219496E+01
  0.14072432E+01  0.13934295E+01  0.13804780E+01  0.13683532E+01  0.13570149E+01
  0.13464191E+01  0.13365178E+01  0.13272599E+01  0.13185916E+01  0.13104567E+01
  0.13027974E+01  0.12955544E+01  0.12886679E+01  0.12820776E+01  0.12757238E+01
  0.12695472E+01  0.12634899E+01  0.12574955E+01  0.12515099E+01  0.12454814E+01
  0.12393609E+01  0.12331030E+01  0.12266652E+01  0.12200093E+01  0.12131006E+01
  0.12059089E+01  0.11984084E+01  0.11905774E+01  0.11823990E+01  0.11738610E+01
  0.11649554E+01  0.11556790E+01  0.11460332E+01  0.11360233E+01  0.11256591E+01
  0.11149544E+01  0.11039267E+01  0.10925970E+01  0.10809897E+01  0.10691322E+01
  0.10570544E+01  0.10447889E+01  0.10323701E+01  0.10198341E+01  0.10072184E+01
  0.99456157E+00  0.98190254E+00  0.96928066E+00  0.95673512E+00  0.94430465E+00
  0.93202718E+00  0.91993952E+00  0.90807705E+00  0.89647342E+00  0.88516034E+00
  0.87416724E+00  0.86352115E+00  0.85324641E+00  0.84336454E+00  0.83389410E+00
  0.82485055E+00  0.81624615E+00  0.80808993E+00  0.80038765E+00  0.79314177E+00
  0.78635152E+00  0.78001295E+00  0.77411896E+00  0.76865947E+00  0.76362153E+00
  0.75898944E+00  0.75474495E+00  0.75086743E+00  0.74733410E+00  0.74412020E+00
  0.74119930E+00  0.73854345E+00  0.73612354E+00  0.73390947E+00  0.73187047E+00
  0.72997533E+00  0.72819269E+00  0.72649131E+00  0.72484026E+00  0.72320924E+00
  0.72156877E+00  0.71989042E+00  0.71814703E+00  0.71631291E+00  0.71436402E+00
  0.71227813E+00  0.71003498E+00  0.70761641E+00  0.70500645E+00  0.70219145E+00
  0.69916008E+00  0.69590345E+00  0.69241507E+00  0.68869089E+00  0.68472926E+00
  0.68053091E+00  0.67609888E+00  0.67143844E+00  0.66655704E+00  0.66146414E+00
  0.65617115E+00  0.65069124E+00  0.64503924E+00  0.63923144E+00  0.63328543E+00
  0.62721994E+00  0.62105462E+00  0.61480989E+00  0.60850669E+00  0.60216636E+00
  0.59581041E+00  0.58946033E+00  0.58313742E+00  0.57686262E+00  0.57065630E+00
  0.56453815E+00  0.55852698E+00  0.55264060E+00  0.54689568E+00  0.54130761E+00
  0.53589041E+00  0.53065665E+00  0.52561734E+00  0.52078188E+00  0.51615804E+00
  0.51175188E+00  0.50756777E+00  0.50360837E+00  0.49987464E+00  0.49636590E+00
  0.49307982E+00  0.49001249E+00  0.48715848E+00  0.48451095E+00  0.48206169E+00
  0.47980125E+00  0.47771902E+00  0.47580340E+00  0.47404184E+00  0.47242104E+00
  0.47092705E+00  0.46954540E+00  0.46826125E+00  0.46705948E+00  0.46592489E+00
  0.46484227E+00  0.46379657E+00  0.46277300E+00  0.46175715E+00  0.46073513E+00
  0.45969365E+00  0.45862013E+00  0.45750279E+00  0.45633075E+00  0.45509406E+00
  0.45378380E+00  0.45239212E+00  0.45091224E+00  0.44933855E+00  0.44766658E+00
  0.44589301E+00  0.44401568E+00  0.44203358E+00  0.43994683E+00  0.43775664E+00
  0.43546528E+00  0.43307601E+00  0.43059305E+00  0.42802151E+00  0.42536728E+00
  0.42263700E+00  0.41983797E+00  0.41697805E+00  0.41406555E+00  0.41110920E+00
  0.40811802E+00  0.40510122E+00  0.40206815E+00  0.39902816E+00  0.39599055E+00
  0.39296446E+00  0.38995881E+00  0.38698221E+00  0.38404286E+00  0.38114852E+00
  0.37830643E+00  0.37552327E+00  0.37280508E+00  0.37015725E+00  0.36758449E+00
  0.36509075E+00  0.36267929E+00  0.36035257E+00  0.35811235E+00  0.35595957E+00
  0.35389448E+00  0.35191657E+00  0.35002463E+00  0.34821677E+00  0.34649046E+00
  0.34484257E+00  0.34326943E+00  0.34176684E+00  0.34033018E+00  0.33895442E+00
  0.33763421E+00  0.33636392E+00  0.33513771E+00  0.33394960E+00  0.33279351E+00
  0.33166334E+00  0.33055303E+00  0.32945661E+00  0.32836826E+00  0.32728240E+00
  0.32619367E+00  0.32509703E+00  0.32398781E+00  0.32286172E+00  0.32171486E+00
  0.32054384E+00  0.31934569E+00  0.31811795E+00  0.31685867E+00  0.31556640E+00
  0.31424021E+00  0.31287967E+00  0.31148487E+00  0.31005638E+00  0.30859525E+00
  0.30710298E+00  0.30558148E+00  0.30403308E+00  0.30246044E+00  0.30086657E+00
  0.29925473E+00  0.29762844E+00  0.29599140E+00  0.29434748E+00  0.29270065E+00
  0.29105493E+00  0.28941437E+00  0.28778299E+00  0.28616474E+00  0.28456345E+00
  0.28298281E+00  0.28142629E+00  0.27989715E+00  0.27839838E+00  0.27693268E+00
  0.27550242E+00  0.27410965E+00  0.27275604E+00  0.27144291E+00  0.27017118E+00
  0.26894140E+00  0.26775372E+00  0.26660791E+00  0.26550337E+00  0.26443909E+00
  0.26341373E+00  0.26242562E+00  0.26147273E+00  0.26055276E+00  0.25966314E+00
  0.25880106E+00  0.25796349E+00  0.25714723E+00  0.25634896E+00  0.25556523E+00
  0.25479255E+00  0.25402736E+00  0.25326615E+00  0.25250541E+00  0.25174174E+00
  0.25097182E+00  0.25019251E+00  0.24940080E+00  0.24859393E+00  0.24776936E+00
  0.24692480E+00  0.24605825E+00  0.24516800E+00  0.24425268E+00  0.24331121E+00
  0.24234286E+00  0.24134725E+00  0.24032431E+00  0.23927435E+00  0.23819799E+00
  0.23709616E+00  0.23597015E+00  0.23482153E+00  0.23365214E+00  0.23246411E+00
  0.23125980E+00  0.23004180E+00  0.22881286E+00  0.22757593E+00  0.22633406E+00
  0.22509040E+00  0.22384818E+00  0.22261067E+00  0.22138113E+00  0.22016278E+00
  0.21895882E+00  0.21777232E+00  0.21660624E+00  0.21546341E+00  0.21434646E+00
  0.21325783E+00  0.21219972E+00  0.21117409E+00  0.21018263E+00  0.20922676E+00
  0.20830760E+00  0.20742596E+00  0.20658235E+00  0.20577697E+00  0.20500970E+00
  0.20428011E+00  0.20358746E+00  0.20293072E+00  0.20230857E+00  0.20171940E+00
  0.20116136E+00  0.20063234E+00  0.20013002E+00  0.19965188E+00  0.19919522E+00
  0.19875722E+00  0.19833490E+00  0.19792523E+00  0.19752508E+00  0.19713132E+00
  0.19674079E+00  0.19635035E+00  0.19595694E+00  0.19555754E+00  0.19514928E+00
  0.19472938E+00  0.19429524E+00  0.19384445E+00  0.19337477E+00  0.19288422E+00
  0.19237102E+00  0.19183367E+00  0.19127093E+00  0.19068181E+00  0.19006564E+00
  0.18942198E+00  0.18875072E+00  0.18805201E+00  0.18732629E+00  0.18657426E+00
  0.18579690E+00  0.18499544E+00  0.18417135E+00  0.18332633E+00  0.18246229E+00
  0.18158132E+00  0.18068568E+00  0.17977778E+00  0.17886014E+00  0.17793538E+00
  0.17700620E+00  0.17607534E+00  0.17514555E+00  0.17421960E+00  0.17330022E+00
  0.17239007E+00  0.17149176E+00  0.17060777E+00  0.16974049E+00  0.16889213E+00
  0.16806476E+00  0.16726026E+00  0.16648029E+00  0.16572635E+00  0.16499965E+00
  0.16430124E+00  0.16363187E+00  0.16299209E+00  0.16238219E+00  0.16180220E+00
  0.16125192E+00  0.16073092E+00  0.16023851E+00  0.15977380E+00  0.15933567E+00
  0.15892279E+00  0.15853364E+00  0.15816656E+00  0.15781970E+00  0.15749107E+00
  0.15717860E+00  0.15688009E+00  0.15659328E+00  0.15631585E+00  0.15604544E+00
  0.15577969E+00  0.15551626E+00  0.15525280E+00  0.15498707E+00  0.15471685E+00
  0.15444003E+00  0.15415464E+00  0.15385879E+00  0.15355077E+00  0.15322902E+00
  0.15289212E+00  0.15253888E+00  0.15216826E+00  0.15177944E+00  0.15137177E+00
  0.15094484E+00  0.15049843E+00  0.15003250E+00  0.14954726E+00  0.14904308E+00
  0.14852053E+00  0.14798038E+00  0.14742356E+00  0.14685116E+00  0.14626443E+00
  0.14566477E+00  0.14505366E+00  0.14443272E+00  0.14380365E+00  0.14316822E+00
  0.14252825E+00  0.14188560E+00  0.14124215E+00  0.14059977E+00  0.13996034E+00
  0.13932566E+00  0.13869753E+00  0.13807765E+00  0.13746763E+00  0.13686900E+00
  0.13628318E+00  0.13571144E+00  0.13515495E+00  0.13461470E+00  0.13409157E+00
  0.13358624E+00  0.13309925E+00  0.13263099E+00  0.13218166E+00  0.13175130E+00
  0.13133980E+00  0.13094686E+00  0.13057205E+00  0.13021477E+00  0.12987429E+00
  0.12954974E+00  0.12924013E+00  0.12894436E+00  0.12866121E+00  0.12838939E+00
  0.12812755E+00  0.12787426E+00  0.12762806E+00  0.12738743E+00  0.12715087E+00
  0.12691687E+00  0.12668392E+00  0.12645054E+00  0.12621531E+00  0.12597685E+00
  0.12573385E+00  0.12548509E+00  0.12522943E+00  0.12496584E+00  0.12469339E+00
  0.12441129E+00  0.12411884E+00  0.12381551E+00  0.12350086E+00  0.12317460E+00
  0.12283660E+00  0.12248682E+00  0.12212539E+00  0.12175256E+00  0.12136870E+00
  0.12097432E+00  0.12057002E+00  0.12015653E+00  0.11973466E+00  0.11930534E+00
  0.11886954E+00  0.11842833E+00  0.11798281E+00  0.11753414E+00  0.11708351E+00
  0.11663212E+00  0.11618121E+00  0.11573197E+00  0.11528562E+00  0.11484331E+00
  0.11440617E+00  0.11397530E+00  0.11355170E+00  0.11313632E+00  0.11273002E+00
  0.11233357E+00  0.11194767E+00  0.11157289E+00  0.11120970E+00  0.11085847E+00
  0.11051946E+00  0.11019279E+00  0.10987850E+00  0.10957650E+00  0.10928659E+00
  0.10900846E+00  0.10874170E+00  0.10848579E+00  0.10824013E+00  0.10800402E+00
  0.10777669E+00  0.10755728E+00  0.10734490E+00  0.10713859E+00  0.10693735E+00
  0.10674015E+00  0.10654594E+00  0.10635365E+00  0.10616223E+00  0.10597062E+00
  0.10577780E+00  0.10558276E+00  0.10538455E+00  0.10518225E+00  0.10497503E+00
  0.10476210E+00  0.10454276E+00  0.10431638E+00  0.10408244E+00  0.10384048E+00
  0.10359016E+00  0.10333122E+00  0.10306353E+00  0.10278702E+00  0.10250174E+00
  0.10220786E+00  0.10190561E+00  0.10159533E+00  0.10127747E+00  0.10095253E+00
  0.10062113E+00  0.10028392E+00  0.99941649E-01  0.99595115E-01  0.99245163E-01
  0.98892680E-01  0.98538585E-01  0.98183818E-01  0.97829335E-01  0.97476094E-01
  0.97125046E-01  0.96777131E-01  0.96433261E-01  0.96094317E-01  0.95761136E-01
  0.95434508E-01  0.95115160E-01  0.94803757E-01  0.94500892E-01  0.94207079E-01
  0.93922752E-01  0.93648259E-01  0.93383858E-01  0.93129718E-01  0.92885917E-01
  0.92652440E-01  0.92429179E-01  0.92215937E-01  0.92012428E-01  0.91818282E-01
  0.91633044E-01  0.91456185E-01  0.91287103E-01  0.91125131E-01  0.90969545E-01
  0.90819568E-01  0.90674382E-01  0.90533134E-01  0.90394943E-01  0.90258912E-01
  0.90124134E-01  0.89989700E-01  0.89854712E-01  0.89718285E-01  0.89579561E-01
  0.89437713E-01  0.89291957E-01  0.89141557E-01  0.88985833E-01  0.88824165E-01
  0.88656002E-01  0.88480868E-01  0.88298360E-01  0.88108156E-01  0.87910018E-01
  0.87703791E-01  0.87489405E-01  0.87266877E-01  0.87036308E-01  0.86797882E-01
  0.86551867E-01  0.86298609E-01  0.86038528E-01  0.85772118E-01  0.85499935E-01
  0.85222600E-01  0.84940783E-01  0.84655203E-01  0.84366618E-01  0.84075820E-01
  0.83783621E-01  0.83490854E-01  0.83198359E-01  0.82906975E-01  0.82617536E-01
  0.82330861E-01  0.82047745E-01  0.81768954E-01  0.81495214E-01  0.81227211E-01
  0.80965575E-01  0.80710882E-01  0.80463646E-01  0.80224313E-01  0.79993259E-01
  0.79770788E-01  0.79557127E-01  0.79352425E-01  0.79156754E-01  0.78970107E-01
  0.78792398E-01  0.78623465E-01  0.78463069E-01  0.78310901E-01  0.78166579E-01
  0.78029657E-01  0.77899628E-01  0.77775930E-01  0.77657950E-01  0.77545030E-01
  0.77436478E-01  0.77331569E-01  0.77229555E-01  0.77129674E-01  0.77031151E-01
  0.76933212E-01  0.76835087E-01  0.76736018E-01  0.76635268E-01  0.76532125E-01
  0.76425909E-01  0.76315983E-01  0.76201751E-01  0.76082670E-01  0.75958253E-01
  0.75828069E-01  0.75691754E-01  0.75549008E-01  0.75399600E-01  0.75243368E-01
  0.75080220E-01  0.74910136E-01  0.74733168E-01  0.74549436E-01  0.74359129E-01
  0.74162502E-01  0.73959874E-01  0.73751623E-01  0.73538183E-01  0.73320039E-01
  0.73097723E-01  0.72871805E-01  0.72642893E-01  0.72411620E-01  0.72178644E-01
  0.71944638E-01  0.71710283E-01  0.71476266E-01  0.71243269E-01  0.71011964E-01
  0.70783007E-01  0.70557033E-01  0.70334647E-01  0.70116421E-01  0.69902887E-01
  0.69694533E-01  0.69491800E-01  0.69295074E-01  0.69104687E-01  0.68920913E-01
  0.68743967E-01  0.68573998E-01  0.68411099E-01  0.68255293E-01  0.68106546E-01
  0.67964759E-01  0.67829772E-01  0.67701367E-01  0.67579271E-01  0.67463155E-01
  0.67352642E-01  0.67247309E-01  0.67146693E-01  0.67050292E-01  0.66957576E-01
  0.66867988E-01  0.66780951E-01  0.66695874E-01  0.66612155E-01  0.66529192E-01
  0.66446384E-01  0.66363137E-01  0.66278874E-01  0.66193034E-01  0.66105083E-01
  0.66014517E-01  0.65920864E-01  0.65823692E-01  0.65722613E-01  0.65617283E-01
  0.65507408E-01  0.65392744E-01  0.65273100E-01  0.65148340E-01  0.65018382E-01
  0.64883200E-01  0.64742823E-01  0.64597334E-01  0.64446870E-01  0.64291619E-01
  0.64131818E-01  0.63967752E-01  0.63799748E-01  0.63628173E-01  0.63453431E-01
  0.63275954E-01  0.63096205E-01  0.62914666E-01  0.62731836E-01  0.62548229E-01
  0.62364364E-01  0.62180761E-01  0.61997940E-01  0.61816411E-01  0.61636670E-01
  0.61459199E-01  0.61284454E-01  0.61112864E-01  0.60944830E-01  0.60780716E-01
  0.60620849E-01  0.60465513E-01  0.60314952E-01  0.60169362E-01  0.60028894E-01
  0.59893650E-01  0.59763684E-01  0.59639001E-01  0.59519557E-01  0.59405262E-01
  0.59295978E-01  0.59191522E-01  0.59091669E-01  0.58996153E-01  0.58904671E-01
  0.58816886E-01  0.58732430E-01  0.58650910E-01  0.58571909E-01  0.58494994E-01
  0.58419715E-01  0.58345617E-01  0.58272236E-01  0.58199113E-01  0.58125787E-01
  0.58051812E-01  0.57976750E-01  0.57900185E-01  0.57821718E-01  0.57740980E-01
  0.57657627E-01  0.57571349E-01  0.57481872E-01  0.57388957E-01  0.57292407E-01
  0.57192064E-01  0.57087814E-01  0.56979586E-01  0.56867350E-01  0.56751124E-01
 gradient corrections used for XC
           5
 core charge-density (partial)
  0.21796814E+01  0.21788149E+01  0.21762175E+01  0.21718955E+01  0.21658594E+01
  0.21581237E+01  0.21487071E+01  0.21376322E+01  0.21249255E+01  0.21106173E+01
  0.20947414E+01  0.20773353E+01  0.20584397E+01  0.20380984E+01  0.20163582E+01
  0.19932689E+01  0.19688826E+01  0.19432540E+01  0.19164398E+01  0.18884987E+01
  0.18594911E+01  0.18294789E+01  0.17985253E+01  0.17666946E+01  0.17340516E+01
  0.17006621E+01  0.16665920E+01  0.16319074E+01  0.15966744E+01  0.15609587E+01
  0.15248257E+01  0.14883401E+01  0.14515657E+01  0.14145653E+01  0.13774006E+01
  0.13401320E+01  0.13028184E+01  0.12655171E+01  0.12282837E+01  0.11911720E+01
  0.11542338E+01  0.11175191E+01  0.10810756E+01  0.10449490E+01  0.10091828E+01
  0.97381810E+00  0.93889391E+00  0.90444684E+00  0.87051122E+00  0.83711903E+00
  0.80429992E+00  0.77208126E+00  0.74048810E+00  0.70954321E+00  0.67926712E+00
  0.64967817E+00  0.62079252E+00  0.59262423E+00  0.56518527E+00  0.53848563E+00
  0.51253335E+00  0.48733458E+00  0.46289367E+00  0.43921320E+00  0.41629412E+00
  0.39413573E+00  0.37273584E+00  0.35209082E+00  0.33219564E+00  0.31304399E+00
  0.29462835E+00  0.27694004E+00  0.25996934E+00  0.24370554E+00  0.22813699E+00
  0.21325124E+00  0.19903505E+00  0.18547448E+00  0.17255499E+00  0.16026146E+00
  0.14857828E+00  0.13748941E+00  0.12697846E+00  0.11702872E+00  0.10762321E+00
  0.98744796E-01  0.90376162E-01  0.82499916E-01  0.75098618E-01  0.68154828E-01
  0.61651145E-01  0.55570252E-01  0.49894954E-01  0.44608210E-01  0.39693168E-01
  0.35133196E-01  0.30911912E-01  0.27013208E-01  0.23421275E-01  0.20120623E-01
  0.17096106E-01  0.14332934E-01  0.11816692E-01  0.95333542E-02  0.74692936E-02
  0.56112946E-02  0.39465605E-02  0.24627207E-02  0.11478361E-02 -0.95971168E-05
 -0.10206451E-02 -0.18959349E-02 -0.26456550E-02 -0.32795567E-02 -0.38069561E-02
 -0.42367384E-02 -0.45773618E-02 -0.48368635E-02 -0.50228655E-02 -0.51425822E-02
 -0.52028279E-02 -0.52100255E-02 -0.51702154E-02 -0.50890652E-02 -0.49718797E-02
 -0.48236115E-02 -0.46488719E-02 -0.44519419E-02 -0.42367838E-02 -0.40070527E-02
 -0.37661084E-02 -0.35170273E-02 -0.32626144E-02 -0.30054154E-02 -0.27477284E-02
 -0.24916164E-02 -0.22389187E-02 -0.19912633E-02 -0.17500779E-02 -0.15166019E-02
 -0.12918976E-02 -0.10768613E-02 -0.87223404E-03 -0.67861246E-03 -0.49645899E-03
 -0.32611196E-03 -0.16779540E-03 -0.21628422E-04  0.11236563E-03  0.23425037E-03
  0.34416798E-03  0.44233105E-03  0.52901488E-03  0.60455010E-03  0.66931560E-03
  0.72373190E-03  0.76825483E-03  0.80336958E-03  0.82958508E-03  0.84742879E-03
  0.85744179E-03  0.86017419E-03  0.85618094E-03  0.84601790E-03  0.83023829E-03
  0.80938940E-03  0.78400962E-03  0.75462576E-03  0.72175069E-03  0.68588118E-03
  0.64749603E-03  0.60705451E-03  0.56499493E-03  0.52173353E-03  0.47766352E-03
  0.43315440E-03  0.38855137E-03  0.34417500E-03  0.30032107E-03  0.25726051E-03
  0.21523953E-03  0.17447985E-03  0.13517915E-03  0.97511451E-04  0.61627810E-04
  0.27656937E-04 -0.42940164E-05 -0.34138622E-04 -0.61810280E-04 -0.87261264E-04
 -0.11046173E-03 -0.13139867E-03 -0.15007488E-03 -0.16650786E-03 -0.18072871E-03
 -0.19278106E-03 -0.20271996E-03 -0.21061075E-03 -0.21652805E-03 -0.22055462E-03
 -0.22278039E-03 -0.22330135E-03 -0.22221867E-03 -0.21963764E-03 -0.21566684E-03
 -0.21041718E-03 -0.20400113E-03 -0.19653189E-03 -0.18812264E-03 -0.17888583E-03
 -0.16893257E-03 -0.15837195E-03 -0.14731055E-03 -0.13585189E-03 -0.12409596E-03
 -0.11213885E-03 -0.10007235E-03 -0.87983636E-04 -0.75955011E-04 -0.64063668E-04
 -0.52381508E-04 -0.40974998E-04 -0.29905072E-04 -0.19227065E-04 -0.89906899E-05
  0.75995651E-06  0.99863493E-05  0.18655464E-04  0.26739676E-04  0.34216634E-04
  0.41069103E-04  0.47284800E-04  0.52856192E-04  0.57780288E-04  0.62058412E-04
  0.65695965E-04  0.68702168E-04  0.71089809E-04  0.72874968E-04  0.74076746E-04
  0.74716990E-04  0.74820012E-04  0.74412312E-04  0.73522299E-04  0.72180018E-04
  0.70416879E-04  0.68265395E-04  0.65758922E-04  0.62931412E-04  0.59817173E-04
  0.56450638E-04  0.52866148E-04  0.49097741E-04  0.45178959E-04  0.41142665E-04
  0.37020874E-04  0.32844593E-04  0.28643683E-04  0.24446730E-04  0.20280926E-04
  0.16171972E-04  0.12143989E-04  0.82194442E-05  0.44190936E-05  0.76193131E-06
 -0.27348428E-05 -0.60558451E-05 -0.91875187E-05 -0.12118132E-04 -0.14837765E-04
 -0.17338289E-04 -0.19613334E-04 -0.21658246E-04 -0.23470037E-04 -0.25047331E-04
 -0.26390296E-04 -0.27500575E-04 -0.28381208E-04 -0.29036555E-04 -0.29472203E-04
 -0.29694885E-04 -0.29712382E-04 -0.29533431E-04 -0.29167630E-04 -0.28625340E-04
 -0.27917587E-04 -0.27055967E-04 -0.26052551E-04 -0.24919787E-04 -0.23670407E-04
 -0.22317341E-04 -0.20873625E-04 -0.19352316E-04 -0.17766412E-04 -0.16128777E-04
 -0.14452062E-04 -0.12748640E-04 -0.11030540E-04 -0.93093876E-05 -0.75963506E-05
 -0.59020880E-05 -0.42367064E-05 -0.26097199E-05 -0.10300161E-05  0.49417356E-06
  0.19552972E-05  0.33465020E-05  0.46616480E-05  0.58953172E-05  0.70428180E-05
  0.81001854E-05  0.90641761E-05  0.99322600E-05  0.10702608E-04  0.11374074E-04
  0.11946179E-04  0.12419084E-04  0.12793564E-04  0.13070984E-04  0.13253263E-04
  0.13342843E-04  0.13342653E-04  0.13256073E-04  0.13086897E-04  0.12839292E-04
  0.12517758E-04  0.12127090E-04  0.11672336E-04  0.11158757E-04  0.10591785E-04
  0.99769854E-05  0.93200180E-05  0.86265966E-05  0.79024536E-05  0.71533033E-05
  0.63848081E-05  0.56025451E-05  0.48119751E-05  0.40184135E-05  0.32270028E-05
  0.24426871E-05  0.16701892E-05  0.91398949E-06  0.17830688E-06 -0.53291746E-06
 -0.12160345E-05 -0.18676995E-05 -0.24848814E-05 -0.30648709E-05 -0.36052852E-05
 -0.41040716E-05 -0.45595083E-05 -0.49702034E-05 -0.53350922E-05 -0.56534321E-05
 -0.59247964E-05 -0.61490654E-05 -0.63264173E-05 -0.64573164E-05 -0.65425005E-05
 -0.65829674E-05 -0.65799595E-05 -0.65349483E-05 -0.64496173E-05 -0.63258446E-05
 -0.61656850E-05 -0.59713512E-05 -0.57451955E-05 -0.54896898E-05 -0.52074075E-05
 -0.49010035E-05 -0.45731957E-05 -0.42267462E-05 -0.38644427E-05 -0.34890809E-05
 -0.31034466E-05 -0.27102996E-05 -0.23123568E-05 -0.19122779E-05 -0.15126501E-05
 -0.11159749E-05 -0.72465560E-06 -0.34098563E-06  0.32862052E-07  0.39484439E-06
  0.74305661E-06  0.10757396E-05  0.13912859E-05  0.16882450E-05  0.19653272E-05
  0.22214065E-05  0.24555222E-05  0.26668798E-05  0.28548509E-05  0.30189715E-05
  0.31589398E-05  0.32746134E-05  0.33660050E-05  0.34332775E-05  0.34767385E-05
  0.34968341E-05  0.34941416E-05  0.34693624E-05  0.34233137E-05  0.33569201E-05
  0.32712044E-05  0.31672789E-05  0.30463353E-05  0.29096356E-05  0.27585018E-05
  0.25943062E-05  0.24184617E-05  0.22324114E-05  0.20376197E-05  0.18355617E-05
  0.16277145E-05  0.14155482E-05  0.12005166E-05  0.98404901E-06  0.76754225E-06
  0.55235303E-06  0.33979073E-06  0.13111079E-06 -0.72491435E-07 -0.26988626E-06
 -0.46001470E-06 -0.64189298E-06 -0.81461635E-06 -0.97736240E-06 -0.11293938E-05
 -0.12700602E-05 -0.13988003E-05 -0.15151419E-05 -0.16187031E-05 -0.17091917E-05
 -0.17864045E-05 -0.18502262E-05 -0.19006275E-05 -0.19376630E-05 -0.19614685E-05
 -0.19722578E-05 -0.19703194E-05 -0.19560128E-05 -0.19297638E-05 -0.18920607E-05
 -0.18434494E-05 -0.17845282E-05 -0.17159431E-05 -0.16383822E-05 -0.15525708E-05
 -0.14592654E-05 -0.13592487E-05 -0.12533238E-05 -0.11423087E-05 -0.10270315E-05
 -0.90832396E-06 -0.78701744E-06 -0.66393707E-06 -0.53989719E-06 -0.41569653E-06
 -0.29211381E-06 -0.16990343E-06 -0.49791560E-07  0.67527628E-07  0.18139533E-06
  0.29119124E-06  0.39633632E-06  0.49629531E-06  0.59057881E-06  0.67874514E-06
  0.76040180E-06  0.83520657E-06  0.90286835E-06  0.96314759E-06  0.10158565E-05
  0.10608587E-05  0.10980692E-05  0.11274528E-05  0.11490239E-05  0.11628447E-05
  0.11690236E-05  0.11677134E-05  0.11591096E-05  0.11434475E-05  0.11210003E-05
  0.10920761E-05  0.10570154E-05  0.10161883E-05  0.96999090E-06  0.91884302E-06
  0.86318450E-06  0.80347219E-06  0.74017677E-06  0.67377943E-06  0.60476876E-06
  0.53363750E-06  0.46087949E-06  0.38698657E-06  0.31244564E-06  0.23773579E-06
  0.16332556E-06  0.89670360E-07  0.17209934E-07 -0.53633901E-07 -0.12245942E-06
 -0.18888698E-06 -0.25256079E-06 -0.31315054E-06 -0.37035279E-06 -0.42389221E-06
 -0.47352261E-06 -0.51902769E-06 -0.56022174E-06 -0.59694998E-06 -0.62908884E-06
 -0.65654594E-06 -0.67925992E-06 -0.69720011E-06 -0.71036602E-06 -0.71878657E-06
 -0.72251928E-06 -0.72164924E-06 -0.71628797E-06 -0.70657206E-06 -0.69266183E-06
 -0.67473975E-06 -0.65300885E-06 -0.62769096E-06 -0.59902497E-06 -0.56726494E-06
 -0.53267819E-06 -0.49554344E-06 -0.45614872E-06 -0.41478950E-06 -0.37176668E-06
 -0.32738459E-06 -0.28194910E-06 -0.23576569E-06 -0.18913759E-06 -0.14236399E-06
 -0.95738250E-07 -0.49546309E-07 -0.40650422E-08  0.40439206E-07  0.83712022E-07
  0.12551222E-06  0.16561302E-06  0.20380311E-06  0.23988761E-06  0.27368891E-06
  0.30504735E-06  0.33382183E-06  0.35989023E-06  0.38314979E-06  0.40351729E-06
  0.42092913E-06  0.43534129E-06  0.44672919E-06  0.45508743E-06  0.46042934E-06
  0.46278659E-06  0.46220852E-06  0.45876151E-06  0.45252818E-06  0.44360654E-06
  0.43210907E-06  0.41816171E-06  0.40190281E-06  0.38348203E-06  0.36305915E-06
  0.34080290E-06  0.31688975E-06  0.29150265E-06  0.26482976E-06  0.23706321E-06
  0.20839784E-06  0.17902995E-06  0.14915604E-06  0.11897164E-06  0.88670133E-07
  0.58441572E-07  0.28471635E-07 -0.10594422E-08 -0.29977856E-07 -0.58117162E-07
 -0.85319143E-07 -0.11143461E-06 -0.13632413E-06 -0.15985866E-06 -0.18192016E-06
 -0.20240206E-06 -0.22120969E-06 -0.23826062E-06 -0.25348490E-06 -0.26682524E-06
 -0.27823713E-06 -0.28768879E-06 -0.29516120E-06 -0.30064787E-06 -0.30415466E-06
 -0.30569952E-06 -0.30531211E-06 -0.30303338E-06 -0.29891510E-06 -0.29301935E-06
 -0.28541789E-06 -0.27619156E-06 -0.26542959E-06 -0.25322891E-06 -0.23969336E-06
 -0.22493296E-06 -0.20906310E-06 -0.19220372E-06 -0.17447849E-06 -0.15601399E-06
 -0.13693886E-06 -0.11738298E-06 -0.97476668E-07 -0.77349842E-07 -0.57131257E-07
 -0.36947727E-07 -0.16923393E-07  0.28209880E-08  0.22168718E-07  0.41007791E-07
  0.59231489E-07  0.76738934E-07  0.93435592E-07  0.10923373E-06  0.12405283E-06
  0.13781993E-06  0.15046992E-06  0.16194583E-06  0.17219899E-06  0.18118916E-06
  0.18888464E-06  0.19526232E-06  0.20030759E-06  0.20401436E-06  0.20638485E-06
  0.20742947E-06  0.20716661E-06  0.20562233E-06  0.20283011E-06  0.19883046E-06
  0.19367058E-06  0.18740390E-06  0.18008971E-06  0.17179259E-06  0.16258200E-06
  0.15253172E-06  0.14171935E-06  0.13022572E-06  0.11813438E-06  0.10553100E-06
  0.92502841E-07  0.79138169E-07  0.65525704E-07  0.51754068E-07  0.37911242E-07
  0.24084042E-07  0.10357607E-07 -0.31850924E-08 -0.16463721E-07 -0.29401023E-07
 -0.41923241E-07 -0.53960503E-07 -0.65447179E-07 -0.76322208E-07 -0.86529390E-07
 -0.96017641E-07 -0.10474121E-06 -0.11265988E-06 -0.11973909E-06 -0.12595006E-06
 -0.13126987E-06 -0.13568148E-06 -0.13917375E-06 -0.14174137E-06 -0.14338484E-06
 -0.14411031E-06 -0.14392947E-06 -0.14285939E-06 -0.14092229E-06 -0.13814534E-06
 -0.13456041E-06 -0.13020375E-06 -0.12511575E-06 -0.11934058E-06 -0.11292585E-06
 -0.10592229E-06 -0.98383376E-07 -0.90364921E-07 -0.81924735E-07 -0.73122214E-07
 -0.64017957E-07 -0.54673369E-07 -0.45150273E-07 -0.35510527E-07 -0.25815640E-07
 -0.16126403E-07 -0.65025298E-08  0.29976894E-08  0.12317723E-07  0.21403113E-07
  0.30201771E-07  0.38664261E-07  0.46744054E-07  0.54397764E-07  0.61585360E-07
  0.68270354E-07  0.74419968E-07  0.80005265E-07  0.85001270E-07  0.89387048E-07
  0.93145769E-07  0.96264741E-07  0.98735417E-07  0.10055338E-06  0.10171830E-06
  0.10223386E-06  0.10210769E-06  0.10135123E-06  0.99979591E-07  0.98011434E-07
  0.95468771E-07  0.92376780E-07  0.88763602E-07  0.84660116E-07  0.80099707E-07
  0.75118019E-07  0.69752700E-07  0.64043136E-07  0.58030187E-07  0.51755907E-07
  0.45263269E-07  0.38595885E-07  0.31797733E-07  0.24912878E-07  0.17985199E-07
  0.11058128E-07  0.41743886E-08 -0.26242550E-08 -0.92972363E-08 -0.15805417E-07
 -0.22111303E-07 -0.28179247E-07 -0.33975639E-07 -0.39469077E-07 -0.44630527E-07
 -0.49433458E-07 -0.53853969E-07 -0.57870893E-07 -0.61465879E-07 -0.64623462E-07
 -0.67331115E-07 -0.69579271E-07 -0.71361344E-07 -0.72673715E-07 -0.73515708E-07
 -0.73889551E-07 -0.73800315E-07 -0.73255835E-07 -0.72266623E-07 -0.70845758E-07
 -0.69008767E-07 -0.66773492E-07 -0.64159943E-07 -0.61190141E-07 -0.57887956E-07
 -0.54278925E-07 -0.50390074E-07 -0.46249730E-07 -0.41887323E-07 -0.37333194E-07
 -0.32618390E-07 -0.27774465E-07 -0.22833281E-07 -0.17826802E-07 -0.12786904E-07
 -0.77451761E-08 -0.27327326E-08  0.22199697E-08  0.70833086E-08  0.11828665E-07
  0.16428582E-07  0.20856919E-07  0.25088984E-07  0.29101672E-07  0.32873577E-07
  0.36385097E-07  0.39618529E-07  0.42558147E-07  0.45190270E-07  0.47503313E-07
  0.49487827E-07  0.51136524E-07  0.52444292E-07  0.53408190E-07  0.54027433E-07
  0.54303369E-07  0.54239433E-07  0.53841100E-07  0.53115815E-07  0.52072924E-07
  0.50723584E-07  0.49080670E-07  0.47158669E-07  0.44973569E-07  0.42542736E-07
  0.39884789E-07  0.37019469E-07  0.33967498E-07  0.30750438E-07  0.27390550E-07
  0.23910642E-07  0.20333928E-07  0.16683871E-07  0.12984043E-07  0.92579762E-08
  0.55290193E-08  0.18201967E-08 -0.18459265E-08 -0.54473773E-08 -0.89629001E-08
 -0.12372077E-07 -0.15655440E-07 -0.18794577E-07 -0.21772229E-07 -0.24572380E-07
 -0.27180337E-07 -0.29582799E-07 -0.31767919E-07 -0.33725360E-07 -0.35446329E-07
 -0.36923616E-07 -0.38151608E-07 -0.39126309E-07 -0.39845334E-07 -0.40307905E-07
 -0.40514828E-07 -0.40468472E-07 -0.40172727E-07 -0.39632962E-07 -0.38855966E-07
 -0.37849891E-07 -0.36624183E-07 -0.35189500E-07 -0.33557637E-07 -0.31741431E-07
 -0.29754673E-07 -0.27612005E-07 -0.25328823E-07 -0.22921170E-07 -0.20405625E-07
 -0.17799202E-07 -0.15119230E-07 -0.12383252E-07 -0.96089071E-08 -0.68138232E-08
 -0.40155110E-08 -0.12312563E-08  0.15219820E-08  0.42276715E-08  0.68698018E-08
  0.94329750E-08  0.11902492E-07  0.14264433E-07  0.16505731E-07  0.18614241E-07
  0.20578802E-07  0.22389291E-07  0.24036672E-07  0.25513034E-07  0.26811626E-07
  0.27926883E-07  0.28854442E-07  0.29591152E-07  0.30135081E-07  0.30485505E-07
  0.30642899E-07  0.30608921E-07  0.30386378E-07  0.29979200E-07  0.29392399E-07
  0.28632020E-07  0.27705096E-07  0.26619586E-07  0.25384315E-07  0.24008913E-07
  0.22503738E-07  0.20879806E-07  0.19148716E-07  0.17322569E-07  0.15413888E-07
  0.13435534E-07  0.11400626E-07  0.93224517E-08  0.72143908E-08  0.50898258E-08
  0.29620628E-08  0.84425034E-09 -0.12506992E-08 -0.33101855E-08 -0.53219934E-08
 -0.72743627E-08 -0.91560540E-08 -0.10956411E-07 -0.12665419E-07 -0.14273755E-07
 -0.15772838E-07 -0.17154872E-07 -0.18412884E-07 -0.19540752E-07 -0.20533235E-07
 -0.21385994E-07 -0.22095605E-07 -0.22659566E-07 -0.23076305E-07 -0.23345175E-07
 -0.23466446E-07 -0.23441291E-07 -0.23271767E-07 -0.22960792E-07 -0.22512116E-07
 -0.21930285E-07 -0.21220606E-07 -0.20389100E-07 -0.19442462E-07 -0.18388006E-07
 -0.17233615E-07 -0.15987685E-07 -0.14659064E-07 -0.13256996E-07 -0.11791059E-07
 -0.10271098E-07 -0.87071650E-08 -0.71094528E-08 -0.54882322E-08 -0.38537866E-08
 -0.22163499E-08 -0.58604346E-09  0.10271838E-08  0.26136147E-08  0.41638199E-08
  0.56687128E-08  0.71196000E-08  0.85082304E-08  0.98268398E-08  0.11068192E-07
  0.12225618E-07  0.13293047E-07  0.14265040E-07  0.15136809E-07  0.15904247E-07
  0.16563936E-07  0.17113164E-07  0.17549932E-07  0.17872957E-07  0.18081671E-07
  0.18176215E-07  0.18157430E-07  0.18026843E-07  0.17786649E-07  0.17439689E-07
  0.16989425E-07  0.16439911E-07  0.15795759E-07  0.15062106E-07  0.14244578E-07
  0.13349242E-07  0.12382572E-07  0.11351399E-07  0.10262866E-07  0.91243815E-08
  0.79435678E-08  0.67282152E-08  0.54862302E-08  0.42255859E-08  0.29542723E-08
  0.16802471E-08  0.41138769E-09 -0.84455689E-09 -0.20800113E-08 -0.32876186E-08
 -0.44602824E-08 -0.55912075E-08 -0.66739376E-08 -0.77023910E-08 -0.86708934E-08
 -0.95742073E-08 -0.10407559E-07 -0.11166664E-07 -0.11847743E-07 -0.12447544E-07
 -0.12963353E-07 -0.13393004E-07 -0.13734888E-07 -0.13987952E-07 -0.14151705E-07
 kinetic energy density (partial)
  0.26863178E+03  0.26852825E+03  0.26821789E+03  0.26770143E+03  0.26698007E+03
  0.26605547E+03  0.26492978E+03  0.26360558E+03  0.26208591E+03  0.26037425E+03
  0.25847448E+03  0.25639090E+03  0.25412819E+03  0.25169139E+03  0.24908591E+03
  0.24631746E+03  0.24339207E+03  0.24031606E+03  0.23709597E+03  0.23373862E+03
  0.23025102E+03  0.22664034E+03  0.22291395E+03  0.21907932E+03  0.21514405E+03
  0.21111580E+03  0.20700230E+03  0.20281132E+03  0.19855062E+03  0.19422797E+03
  0.18985106E+03  0.18542758E+03  0.18096509E+03  0.17647106E+03  0.17195287E+03
  0.16741773E+03  0.16287271E+03  0.15832470E+03  0.15378042E+03  0.14924638E+03
  0.14472888E+03  0.14023402E+03  0.13576763E+03  0.13133533E+03  0.12694248E+03
  0.12259419E+03  0.11829532E+03  0.11405044E+03  0.10986389E+03  0.10573970E+03
  0.10168167E+03  0.97693301E+02  0.93777840E+02  0.89938263E+02  0.86177281E+02
  0.82497340E+02  0.78900634E+02  0.75389098E+02  0.71964423E+02  0.68628055E+02
  0.65381204E+02  0.62224851E+02  0.59159755E+02  0.56186459E+02  0.53305299E+02
  0.50516412E+02  0.47819744E+02  0.45215059E+02  0.42701948E+02  0.40279835E+02
  0.37947990E+02  0.35705535E+02  0.33551453E+02  0.31484599E+02  0.29503707E+02
  0.27607397E+02  0.25794190E+02  0.24062508E+02  0.22410689E+02  0.20836994E+02
  0.19339612E+02  0.17916669E+02  0.16566239E+02  0.15286348E+02  0.14074980E+02
  0.12930089E+02  0.11849601E+02  0.10831420E+02  0.98734398E+01  0.89735435E+01
  0.81296125E+01  0.73395307E+01  0.66011901E+01  0.59124948E+01  0.52713660E+01
  0.46757461E+01  0.41236022E+01  0.36129304E+01  0.31417583E+01  0.27081489E+01
  0.23102029E+01  0.19460614E+01  0.16139084E+01  0.13119724E+01  0.10385290E+01
  0.79190158E+00  0.57046355E+00  0.37263898E+00  0.19690379E+00  0.41786470E-01
 -0.94131327E-01 -0.21221437E+00 -0.31377361E+00 -0.40006614E+00 -0.47229523E+00
 -0.53161059E+00 -0.57910874E+00 -0.61583345E+00 -0.64277644E+00 -0.66087800E+00
 -0.67102792E+00 -0.67406633E+00 -0.67078477E+00 -0.66192725E+00 -0.64819141E+00
 -0.63022974E+00 -0.60865090E+00 -0.58402099E+00 -0.55686500E+00 -0.52766814E+00
 -0.49687734E+00 -0.46490271E+00 -0.43211897E+00 -0.39886702E+00 -0.36545540E+00
 -0.33216180E+00 -0.29923456E+00 -0.26689419E+00 -0.23533483E+00 -0.20472573E+00
 -0.17521267E+00 -0.14691947E+00 -0.11994927E+00 -0.94386034E-01 -0.70295778E-01
 -0.47727953E-01 -0.26716689E-01 -0.72820292E-02  0.10568868E-01  0.26840581E-01
  0.41548312E-01  0.54716818E-01  0.66379390E-01  0.76576874E-01  0.85356739E-01
  0.92772191E-01  0.98881331E-01  0.10374636E+00  0.10743284E+00  0.11000897E+00
  0.11154495E+00  0.11211237E+00  0.11178360E+00  0.11063132E+00  0.10872799E+00
  0.10614545E+00  0.10295446E+00  0.99224397E-01  0.95022870E-01  0.90415475E-01
  0.85465514E-01  0.80233781E-01  0.74778368E-01  0.69154504E-01  0.63414428E-01
  0.57607281E-01  0.51779031E-01  0.45972418E-01  0.40226924E-01  0.34578763E-01
  0.29060894E-01  0.23703047E-01  0.18531769E-01  0.13570488E-01  0.88395856E-02
  0.43564836E-02  0.13574516E-03 -0.38108180E-02 -0.74740283E-02 -0.10847217E-01
 -0.13926096E-01 -0.16708619E-01 -0.19194842E-01 -0.21386786E-01 -0.23288284E-01
 -0.24904844E-01 -0.26243497E-01 -0.27312655E-01 -0.28121968E-01 -0.28682181E-01
 -0.29004996E-01 -0.29102935E-01 -0.28989213E-01 -0.28677605E-01 -0.28182329E-01
 -0.27517927E-01 -0.26699151E-01 -0.25740861E-01 -0.24657922E-01 -0.23465112E-01
 -0.22177036E-01 -0.20808041E-01 -0.19372146E-01 -0.17882972E-01 -0.16353679E-01
 -0.14796914E-01 -0.13224762E-01 -0.11648701E-01 -0.10079570E-01 -0.85275339E-02
 -0.70020640E-02 -0.55119155E-02 -0.40651161E-02 -0.26689565E-02 -0.13299879E-02
 -0.54022616E-04  0.11538601E-02  0.22893047E-02  0.33486653E-02  0.43289895E-02
  0.52279979E-02  0.60440609E-02  0.67761735E-02  0.74239270E-02  0.79874788E-02
  0.84675212E-02  0.88652477E-02  0.91823188E-02  0.94208263E-02  0.95832577E-02
  0.96724594E-02  0.96915999E-02  0.96441335E-02  0.95337634E-02  0.93644057E-02
  0.91401543E-02  0.88652459E-02  0.85440265E-02  0.81809186E-02  0.77803899E-02
  0.73469233E-02  0.68849881E-02  0.63990131E-02  0.58933609E-02  0.53723045E-02
  0.48400048E-02  0.43004906E-02  0.37576402E-02  0.32151645E-02  0.26765922E-02
  0.21452572E-02  0.16242869E-02  0.11165930E-02  0.62486404E-03  0.15155926E-03
 -0.30109565E-03 -0.73111115E-03 -0.11367350E-02 -0.15164518E-02 -0.18689814E-02
 -0.21932756E-02 -0.24885138E-02 -0.27540976E-02 -0.29896442E-02 -0.31949785E-02
 -0.33701252E-02 -0.35152989E-02 -0.36308944E-02 -0.37174761E-02 -0.37757666E-02
 -0.38066352E-02 -0.38110860E-02 -0.37902458E-02 -0.37453510E-02 -0.36777360E-02
 -0.35888199E-02 -0.34800944E-02 -0.33531112E-02 -0.32094699E-02 -0.30508061E-02
 -0.28787793E-02 -0.26950625E-02 -0.25013304E-02 -0.22992497E-02 -0.20904685E-02
 -0.18766076E-02 -0.16592513E-02 -0.14399394E-02 -0.12201593E-02 -0.10013394E-02
 -0.78484253E-03 -0.57196044E-03 -0.36390882E-03 -0.16182293E-03  0.33246013E-04
  0.22033384E-03  0.39856577E-03  0.56715813E-03  0.72541943E-03  0.87275087E-03
  0.10086462E-02  0.11326913E-02  0.12445625E-02  0.13440257E-02  0.14309334E-02
  0.15052227E-02  0.15669122E-02  0.16160985E-02  0.16529527E-02  0.16777162E-02
  0.16906967E-02  0.16922636E-02  0.16828433E-02  0.16629144E-02  0.16330027E-02
  0.15936762E-02  0.15455400E-02  0.14892312E-02  0.14254136E-02  0.13547727E-02
  0.12780109E-02  0.11958421E-02  0.11089874E-02  0.10181699E-02  0.92411079E-03
  0.82752431E-03  0.72911424E-03  0.62956966E-03  0.52956140E-03  0.42973853E-03
  0.33072526E-03  0.23311801E-03  0.13748279E-03  0.44352805E-04 -0.45773541E-04
 -0.13243448E-03 -0.21520634E-03 -0.29370480E-03 -0.36758580E-03 -0.43654617E-03
 -0.50032408E-03 -0.55869911E-03 -0.61149218E-03 -0.65856511E-03 -0.69982007E-03
 -0.73519873E-03 -0.76468126E-03 -0.78828506E-03 -0.80606336E-03 -0.81810369E-03
 -0.82452609E-03 -0.82548131E-03 -0.82114880E-03 -0.81173463E-03 -0.79746931E-03
 -0.77860556E-03 -0.75541604E-03 -0.72819093E-03 -0.69723565E-03 -0.66286843E-03
 -0.62541795E-03 -0.58522100E-03 -0.54262012E-03 -0.49796137E-03 -0.45159206E-03
 -0.40385860E-03 -0.35510446E-03 -0.30566811E-03 -0.25588115E-03 -0.20606655E-03
 -0.15653692E-03 -0.10759296E-03 -0.59522022E-04 -0.12596781E-04  0.32925927E-04
  0.76806176E-04  0.11882186E-03  0.15876946E-03  0.19646471E-03  0.23174308E-03
  0.26446016E-03  0.29449191E-03  0.32173473E-03  0.34610548E-03  0.36754134E-03
  0.38599952E-03  0.40145693E-03  0.41390968E-03  0.42337251E-03  0.42987812E-03
  0.43347642E-03  0.43423369E-03  0.43223167E-03  0.42756658E-03  0.42034811E-03
  0.41069832E-03  0.39875052E-03  0.38464814E-03  0.36854353E-03  0.35059677E-03
  0.33097446E-03  0.30984852E-03  0.28739497E-03  0.26379276E-03  0.23922256E-03
  0.21386566E-03  0.18790281E-03  0.16151313E-03  0.13487314E-03  0.10815567E-03
  0.81528990E-04  0.55155886E-04  0.29192847E-04  0.37892968E-05 -0.20913114E-04
 -0.44781134E-04 -0.67690481E-04 -0.89526338E-04 -0.11018377E-03 -0.12956809E-03
 -0.14759512E-03 -0.16419141E-03 -0.17929441E-03 -0.19285247E-03 -0.20482489E-03
 -0.21518187E-03 -0.22390434E-03 -0.23098381E-03 -0.23642208E-03 -0.24023099E-03
 -0.24243205E-03 -0.24305602E-03 -0.24214248E-03 -0.23973935E-03 -0.23590235E-03
 -0.23069447E-03 -0.22418537E-03 -0.21645079E-03 -0.20757189E-03 -0.19763465E-03
 -0.18672919E-03 -0.17494912E-03 -0.16239087E-03 -0.14915305E-03 -0.13533575E-03
 -0.12103995E-03 -0.10636684E-03 -0.91417200E-04 -0.76290838E-04 -0.61085973E-04
 -0.45898697E-04 -0.30822448E-04 -0.15947513E-04 -0.13605629E-05  0.12855775E-04
  0.26623315E-04  0.39868666E-04  0.52523555E-04  0.64525102E-04  0.75816066E-04
  0.86345040E-04  0.96066615E-04  0.10494150E-03  0.11293658E-03  0.12002502E-03
  0.12618617E-03  0.13140563E-03  0.13567510E-03  0.13899231E-03  0.14136089E-03
  0.14279017E-03  0.14329499E-03  0.14289547E-03  0.14161676E-03  0.13948877E-03
  0.13654581E-03  0.13282637E-03  0.12837270E-03  0.12323047E-03  0.11744847E-03
  0.11107815E-03  0.10417331E-03  0.96789668E-04  0.88984517E-04  0.80816304E-04
  0.72344264E-04  0.63628040E-04  0.54727306E-04  0.45701412E-04  0.36609027E-04
  0.27507799E-04  0.18454037E-04  0.95023929E-05  0.70557895E-06 -0.78859105E-05
 -0.16224050E-04 -0.24263513E-04 -0.31961886E-04 -0.39279851E-04 -0.46181353E-04
 -0.52633740E-04 -0.58607880E-04 -0.64078253E-04 -0.69023022E-04 -0.73424075E-04
 -0.77267052E-04 -0.80541339E-04 -0.83240044E-04 -0.85359958E-04 -0.86901478E-04
 -0.87868532E-04 -0.88268462E-04 -0.88111906E-04 -0.87412659E-04 -0.86187508E-04
 -0.84456070E-04 -0.82240602E-04 -0.79565809E-04 -0.76458633E-04 -0.72948044E-04
 -0.69064816E-04 -0.64841295E-04 -0.60311174E-04 -0.55509254E-04 -0.50471207E-04
 -0.45233343E-04 -0.39832374E-04 -0.34305181E-04 -0.28688588E-04 -0.23019141E-04
 -0.17332890E-04 -0.11665183E-04 -0.60504680E-05 -0.52210242E-06  0.48878236E-05
  0.10148654E-04  0.15231321E-04  0.20108488E-04  0.24754671E-04  0.29146362E-04
  0.33262120E-04  0.37082659E-04  0.40590917E-04  0.43772113E-04  0.46613782E-04
  0.49105807E-04  0.51240422E-04  0.53012215E-04  0.54418104E-04  0.55457309E-04
  0.56131306E-04  0.56443770E-04  0.56400504E-04  0.56009360E-04  0.55280146E-04
  0.54224526E-04  0.52855908E-04  0.51189329E-04  0.49241323E-04  0.47029796E-04
  0.44573884E-04  0.41893812E-04  0.39010747E-04  0.35946654E-04  0.32724140E-04
  0.29366308E-04  0.25896605E-04  0.22338672E-04  0.18716196E-04  0.15052767E-04
  0.11371737E-04  0.76960820E-05  0.40482688E-05  0.45013280E-06 -0.30772437E-05
 -0.65136435E-05 -0.98398194E-05 -0.13037591E-04 -0.16089934E-04 -0.18981059E-04
 -0.21696481E-04 -0.24223085E-04 -0.26549172E-04 -0.28664506E-04 -0.30560344E-04
 -0.32229460E-04 -0.33666157E-04 -0.34866274E-04 -0.35827175E-04 -0.36547740E-04
 -0.37028336E-04 -0.37270791E-04 -0.37278349E-04 -0.37055624E-04 -0.36608544E-04
 -0.35944290E-04 -0.35071227E-04 -0.33998829E-04 -0.32737601E-04 -0.31298994E-04
 -0.29695317E-04 -0.27939645E-04 -0.26045727E-04 -0.24027884E-04 -0.21900916E-04
 -0.19680001E-04 -0.17380596E-04 -0.15018337E-04 -0.12608938E-04 -0.10168100E-04
 -0.77114109E-05 -0.52542561E-05 -0.28117265E-05 -0.39853379E-06  0.19710715E-05
  0.42833782E-05  0.65252872E-05  0.86843792E-05  0.10748978E-04  0.12708205E-04
  0.14552033E-04  0.16271330E-04  0.17857897E-04  0.19304499E-04  0.20604895E-04
  0.21753852E-04  0.22747160E-04  0.23581641E-04  0.24255145E-04  0.24766545E-04
  0.25115724E-04  0.25303561E-04  0.25331901E-04  0.25203530E-04  0.24922138E-04
  0.24492282E-04  0.23919342E-04  0.23209471E-04  0.22369546E-04  0.21407110E-04
  0.20330316E-04  0.19147867E-04  0.17868950E-04  0.16503175E-04  0.15060503E-04
  0.13551188E-04  0.11985701E-04  0.10374665E-04  0.87287916E-05  0.70588080E-05
  0.53753958E-05  0.36891253E-05  0.20103937E-05  0.34936478E-06 -0.12840886E-05
 -0.28804392E-05 -0.44305572E-05 -0.59257588E-05 -0.73578504E-05 -0.87191704E-05
 -0.10002626E-04 -0.11201725E-04 -0.12310608E-04 -0.13324069E-04 -0.14237577E-04
 -0.15047291E-04 -0.15750074E-04 -0.16343495E-04 -0.16825836E-04 -0.17196084E-04
 -0.17453933E-04 -0.17599766E-04 -0.17634644E-04 -0.17560288E-04 -0.17379055E-04
 -0.17093914E-04 -0.16708418E-04 -0.16226671E-04 -0.15653292E-04 -0.14993383E-04
 -0.14252483E-04 -0.13436533E-04 -0.12551828E-04 -0.11604976E-04 -0.10602850E-04
 -0.95525435E-05 -0.84613222E-05 -0.73365781E-05 -0.61857813E-05 -0.50164337E-05
 -0.38360229E-05 -0.26519766E-05 -0.14716187E-05 -0.30212633E-06  0.84951122E-06
  0.19765319E-05  0.30724383E-05  0.41310324E-05  0.51464486E-05  0.61131836E-05
  0.70261239E-05  0.78805702E-05  0.86722595E-05  0.93973830E-05  0.10052603E-04
  0.10635062E-04  0.11142399E-04  0.11572746E-04  0.11924741E-04  0.12197520E-04
  0.12390718E-04  0.12504464E-04  0.12539367E-04  0.12496512E-04  0.12377437E-04
  0.12184123E-04  0.11918970E-04  0.11584781E-04  0.11184731E-04  0.10722348E-04
  0.10201483E-04  0.96262803E-05  0.90011506E-05  0.83307367E-05  0.76198832E-05
  0.68736034E-05  0.60970457E-05  0.52954605E-05  0.44741665E-05  0.36385170E-05
  0.27938668E-05  0.19455401E-05  0.10987976E-05  0.25880636E-06 -0.56939046E-06
 -0.13809025E-05 -0.21710192E-05 -0.29352359E-05 -0.36692780E-05 -0.43691229E-05
 -0.50310210E-05 -0.56515139E-05 -0.62274511E-05 -0.67560041E-05 -0.72346783E-05
 -0.76613236E-05 -0.80341416E-05 -0.83516908E-05 -0.86128905E-05 -0.88170209E-05
 -0.89637225E-05 -0.90529922E-05 -0.90851779E-05 -0.90609710E-05 -0.89813968E-05
 -0.88478028E-05 -0.86618458E-05 -0.84254771E-05 -0.81409254E-05 -0.78106799E-05
 -0.74374701E-05 -0.70242463E-05 -0.65741578E-05 -0.60905305E-05 -0.55768446E-05
 -0.50367101E-05 -0.44738436E-05 -0.38920437E-05 -0.32951666E-05 -0.26871017E-05
 -0.20717477E-05 -0.14529881E-05 -0.83466857E-06 -0.22057336E-06  0.38559633E-06
  0.98024389E-06  0.15598975E-05  0.21212295E-05  0.26610743E-05  0.31764454E-05
  0.36645510E-05  0.41228078E-05  0.45488535E-05  0.49405584E-05  0.52960345E-05
  0.56136434E-05  0.58920026E-05  0.61299903E-05  0.63267480E-05  0.64816820E-05
  0.65944631E-05  0.66650245E-05  0.66935588E-05  0.66805122E-05  0.66265787E-05
  0.65326920E-05  0.64000159E-05  0.62299346E-05  0.60240403E-05  0.57841208E-05
  0.55121455E-05  0.52102511E-05  0.48807257E-05  0.45259929E-05  0.41485951E-05
  0.37511760E-05  0.33364633E-05  0.29072505E-05  0.24663794E-05  0.20167218E-05
  0.15611614E-05  0.11025763E-05  0.64382160E-06  0.18771206E-06 -0.26299428E-06
 -0.70561214E-06 -0.11375443E-05 -0.15562963E-05 -0.19594899E-05 -0.23448761E-05
 -0.27103471E-05 -0.30539469E-05 -0.33738809E-05 -0.36685252E-05 -0.39364334E-05
 -0.41763431E-05 -0.43871812E-05 -0.45680672E-05 -0.47183166E-05 -0.48374416E-05
 -0.49251516E-05 -0.49813524E-05 -0.50061434E-05 -0.49998149E-05 -0.49628431E-05
 -0.48958851E-05 -0.47997720E-05 -0.46755013E-05 -0.45242289E-05 -0.43472595E-05
 -0.41460366E-05 -0.39221318E-05 -0.36772337E-05 -0.34131355E-05 -0.31317227E-05
 -0.28349608E-05 -0.25248817E-05 -0.22035703E-05 -0.18731517E-05 -0.15357771E-05
 -0.11936105E-05 -0.84881523E-06 -0.50354108E-06 -0.15991107E-06  0.17999104E-06
  0.51413288E-06  0.84054518E-06  0.11573329E-05  0.14626859E-05  0.17548885E-05
  0.20323289E-05  0.22935078E-05  0.25370453E-05  0.27616885E-05  0.29663169E-05
  0.31499477E-05  0.33117395E-05  0.34509963E-05  0.35671689E-05  0.36598568E-05
  0.37288085E-05  0.37739211E-05  0.37952386E-05  0.37929502E-05  0.37673866E-05
  0.37190166E-05  0.36484421E-05  0.35563925E-05  0.34437191E-05  0.33113876E-05
  0.31604713E-05  0.29921425E-05  0.28076646E-05  0.26083828E-05  0.23957151E-05
  0.21711423E-05  0.19361985E-05  0.16924610E-05  0.14415398E-05  0.11850677E-05
  0.92468965E-06  0.66205313E-06  0.39879754E-06  0.13654453E-06 -0.12311169E-06
 -0.37861370E-06 -0.62844990E-06 -0.87116315E-06 -0.11053589E-05 -0.13297129E-05
 -0.15429784E-05 -0.17439927E-05 -0.19316831E-05 -0.21050725E-05 -0.22632836E-05
 -0.24055437E-05 -0.25311873E-05 -0.26396594E-05 -0.27305171E-05 -0.28034309E-05
 -0.28581852E-05 -0.28946784E-05 -0.29129217E-05 -0.29130379E-05 -0.28952590E-05
 -0.28599234E-05 -0.28074726E-05 -0.27384470E-05 -0.26534816E-05 -0.25533005E-05
 -0.24387120E-05 -0.23106017E-05 -0.21699269E-05 -0.20177096E-05 -0.18550292E-05
 -0.16830154E-05 -0.15028407E-05 -0.13157127E-05 -0.11228661E-05 -0.92555503E-06
 -0.72504504E-06 -0.52260531E-06 -0.31950077E-06 -0.11698454E-06  0.83709669E-07
  0.28137477E-06  0.47483735E-06  0.66296444E-06  0.84466984E-06  0.10189203E-05
  0.11847409E-05  0.13412207E-05  0.14875170E-05  0.16228601E-05  0.17465566E-05
  0.18579932E-05  0.19566391E-05  0.20420482E-05  0.21138610E-05  0.21718056E-05
  0.22156983E-05  0.22454434E-05  0.22610331E-05  0.22625463E-05  0.22501467E-05
  0.22240815E-05  0.21846782E-05  0.21323417E-05  0.20675514E-05  0.19908566E-05
  0.19028729E-05  0.18042775E-05  0.16958039E-05  0.15782374E-05  0.14524090E-05
  0.13191905E-05  0.11794880E-05  0.10342362E-05  0.88439264E-06  0.73093115E-06
  0.57483592E-06  0.41709536E-06  0.25869596E-06  0.10061634E-06 -0.56178652E-07
 -0.21074364E-06 -0.36215830E-06 -0.50953261E-06 -0.65201199E-06 -0.78878202E-06
 -0.91907301E-06 -0.10421641E-05 -0.11573870E-05 -0.12641297E-05 -0.13618392E-05
 -0.14500246E-05 -0.15282587E-05 -0.15961805E-05 -0.16534965E-05 -0.16999813E-05
 atomic pseudo charge-density
  0.30000000E+01  0.29867293E+01  0.29473550E+01  0.28831563E+01  0.27961582E+01
  0.26889866E+01  0.25646938E+01  0.24265747E+01  0.22779934E+01  0.21222320E+01
  0.19623721E+01  0.18012094E+01  0.16412019E+01  0.14844451E+01  0.13326703E+01
  0.11872589E+01  0.10492676E+01  0.91946053E+00  0.79834334E+00  0.68619911E+00
  0.58312220E+00  0.48905031E+00  0.40379372E+00  0.32706148E+00  0.25848460E+00
  0.19763634E+00  0.14404956E+00  0.97231677E-01  0.56677124E-01  0.21877734E-01
 -0.76687787E-02 -0.32452049E-01 -0.52943761E-01 -0.69593660E-01 -0.82826667E-01
 -0.93040959E-01 -0.10060685E+00 -0.10586633E+00 -0.10913317E+00 -0.11069345E+00
 -0.11080642E+00 -0.10970566E+00 -0.10760038E+00 -0.10467689E+00 -0.10110012E+00
 -0.97015205E-01 -0.92549043E-01 -0.87811848E-01 -0.82898655E-01 -0.77890764E-01
 -0.72857110E-01 -0.67855555E-01 -0.62934096E-01 -0.58131982E-01 -0.53480748E-01
 -0.49005164E-01 -0.44724093E-01 -0.40651282E-01 -0.36796059E-01 -0.33163979E-01
 -0.29757385E-01 -0.26575920E-01 -0.23616972E-01 -0.20876079E-01 -0.18347268E-01
 -0.16023371E-01 -0.13896288E-01 -0.11957216E-01 -0.10196854E-01 -0.86055740E-02
 -0.71735630E-02 -0.58909525E-02 -0.47479202E-02 -0.37347777E-02 -0.28420417E-02
 -0.20604922E-02 -0.13812190E-02 -0.79565782E-03 -0.29561726E-03  0.12670126E-03
  0.47869059E-03  0.76733050E-03  0.99918502E-03  0.11804039E-02  0.13167274E-02
  0.14134941E-02  0.14756507E-02  0.15077638E-02  0.15140336E-02  0.14983080E-02
  0.14640981E-02  0.14145943E-02  0.13526828E-02  0.12809615E-02  0.12017576E-02
  0.11171434E-02  0.10289532E-02  0.93879904E-03  0.84808647E-03  0.75802993E-03
  0.66966739E-03  0.58387466E-03  0.50137902E-03  0.42277230E-03  0.34852337E-03
  0.27898995E-03  0.21442987E-03  0.15501162E-03  0.10082442E-03  0.51887464E-04
  0.81587949E-05 -0.30456591E-04 -0.64099118E-04 -0.92947600E-04 -0.11721274E-03
 -0.13713116E-03 -0.15295991E-03 -0.16497150E-03 -0.17344935E-03 -0.17868370E-03
 -0.18096797E-03 -0.18059543E-03 -0.17785632E-03 -0.17303532E-03 -0.16640934E-03
 -0.15824556E-03 -0.14879992E-03 -0.13831570E-03 -0.12702247E-03 -0.11513526E-03
 -0.10285391E-03 -0.90362637E-04 -0.77829795E-04 -0.65407791E-04 -0.53233144E-04
 -0.41426688E-04 -0.30093887E-04 -0.19325260E-04 -0.91968962E-05  0.22895035E-06
  0.89031990E-05  0.16789225E-04  0.23862096E-04  0.30107775E-04  0.35522294E-04
  0.40110918E-04  0.43887291E-04  0.46872587E-04  0.49094663E-04  0.50587229E-04
  0.51389028E-04  0.51543045E-04  0.51095738E-04  0.50096308E-04  0.48595990E-04
  0.46647397E-04  0.44303893E-04  0.41619013E-04  0.38645923E-04  0.35436930E-04
  0.32043027E-04  0.28513500E-04  0.24895561E-04  0.21234042E-04  0.17571124E-04
  0.13946116E-04  0.10395267E-04  0.69516312E-05  0.36449619E-05  0.50164688E-06
 -0.24553208E-05 -0.52063400E-05 -0.77351672E-05 -0.10028854E-04 -0.12077660E-04
 -0.13874938E-04 -0.15417002E-04 -0.16702978E-04 -0.17734631E-04 -0.18516188E-04
 -0.19054143E-04 -0.19357056E-04 -0.19435347E-04 -0.19301079E-04 -0.18967746E-04
 -0.18450059E-04 -0.17763731E-04 -0.16925267E-04 -0.15951761E-04 -0.14860695E-04
 -0.13669748E-04 -0.12396618E-04 -0.11058848E-04 -0.96736675E-05 -0.82578404E-05
 -0.68275334E-05 -0.53981911E-05 -0.39844265E-05 -0.25999258E-05 -0.12573655E-05
  0.31655330E-07  0.12566703E-05  0.24083867E-05  0.34787145E-05  0.44607815E-05
  0.53489372E-05  0.61387454E-05  0.68269648E-05  0.74115208E-05  0.78914668E-05
  0.82669377E-05  0.85390956E-05  0.87100679E-05  0.87828806E-05  0.87613853E-05
  0.86501833E-05  0.84545449E-05  0.81803280E-05  0.78338933E-05  0.74220207E-05
  0.69518237E-05  0.64306666E-05  0.58660816E-05  0.52656893E-05  0.46371211E-05
  0.39879458E-05  0.33255997E-05  0.26573207E-05  0.19900882E-05  0.13305669E-05
  0.68505700E-06  0.59449343E-07 -0.54081334E-06 -0.11107694E-05 -0.16459654E-05
 -0.21424773E-05 -0.25969253E-05 -0.30064842E-05 -0.33688866E-05 -0.36824216E-05
 -0.39459287E-05 -0.41587855E-05 -0.43208922E-05 -0.44326511E-05 -0.44949424E-05
 -0.45090963E-05 -0.44768626E-05 -0.44003766E-05 -0.42821236E-05 -0.41249014E-05
 -0.39317805E-05 -0.37060645E-05 -0.34512491E-05 -0.31709809E-05 -0.28690168E-05
 -0.25491834E-05 -0.22153377E-05 -0.18713287E-05 -0.15209609E-05 -0.11679593E-05
 -0.81593625E-06 -0.46836129E-06 -0.12853283E-06  0.20044725E-06  0.51569624E-06
  0.81457037E-06  0.10946816E-05  0.13539112E-05  0.15904208E-05  0.18026598E-05
  0.19893699E-05  0.21495875E-05  0.22826416E-05  0.23881511E-05  0.24660172E-05
  0.25164154E-05  0.25397840E-05  0.25368106E-05  0.25084172E-05  0.24557431E-05
  0.23801268E-05  0.22830861E-05  0.21662972E-05  0.20315738E-05  0.18808446E-05
  0.17161310E-05  0.15395244E-05  0.13531638E-05  0.11592138E-05  0.95984247E-06
  0.75720059E-06  0.55340146E-06  0.35050160E-06  0.15048281E-06 -0.44764593E-07
 -0.23345709E-06 -0.41393180E-06 -0.58465869E-06 -0.74425116E-06 -0.89147496E-06
 -0.10252553E-05 -0.11446822E-05 -0.12490145E-05 -0.13376812E-05 -0.14102823E-05
 -0.14665871E-05 -0.15065315E-05 -0.15302131E-05 -0.15378859E-05 -0.15299529E-05
 -0.15069576E-05 -0.14695745E-05 -0.14185990E-05 -0.13549358E-05 -0.12795871E-05
 -0.11936399E-05 -0.10982530E-05 -0.99464375E-06 -0.88407450E-06 -0.76783916E-06
 -0.64724968E-06 -0.52362287E-06 -0.39826748E-06 -0.27247182E-06 -0.14749181E-06
 -0.24539755E-07  0.95226123E-07  0.21071142E-06  0.32089433E-06  0.42483351E-06
  0.52167495E-06  0.61065784E-06  0.69111932E-06  0.76249819E-06  0.82433760E-06
  0.87628656E-06  0.91810047E-06  0.94964059E-06  0.97087248E-06  0.98186357E-06
  0.98277968E-06  0.97388082E-06  0.95551615E-06  0.92811815E-06  0.89219629E-06
  0.84832995E-06  0.79716106E-06  0.73938612E-06  0.67574808E-06  0.60702787E-06
  0.53403585E-06  0.45760318E-06  0.37857321E-06  0.29779297E-06  0.21610485E-06
  0.13433855E-06  0.53303346E-07 -0.26219248E-07 -0.10348238E-06 -0.17778021E-06
 -0.24845377E-06 -0.31489612E-06 -0.37655703E-06 -0.43294681E-06 -0.48363963E-06
 -0.52827603E-06 -0.56656480E-06 -0.59828407E-06 -0.62328183E-06 -0.64147561E-06
 -0.65285165E-06 -0.65746332E-06 -0.65542896E-06 -0.64692915E-06 -0.63220349E-06
 -0.61154678E-06 -0.58530489E-06 -0.55387010E-06 -0.51767625E-06 -0.47719345E-06
 -0.43292270E-06 -0.38539028E-06 -0.33514199E-06 -0.28273741E-06 -0.22874413E-06
 -0.17373202E-06 -0.11826764E-06 -0.62908822E-07 -0.81993931E-08  0.45335754E-07
  0.97195352E-07  0.14690609E-06  0.19402659E-06  0.23815096E-06  0.27891196E-06
  0.31598366E-06  0.34908372E-06  0.37797513E-06  0.40246749E-06  0.42241785E-06
  0.43773098E-06  0.44835927E-06  0.45430212E-06  0.45560489E-06  0.45235744E-06
  0.44469229E-06  0.43278233E-06  0.41683830E-06  0.39710587E-06  0.37386249E-06
  0.34741398E-06  0.31809094E-06  0.28624499E-06  0.25224486E-06  0.21647246E-06
  0.17931881E-06  0.14118012E-06  0.10245374E-06  0.63534258E-07  0.24809774E-07
 -0.13341811E-07 -0.50556238E-07 -0.86486161E-07 -0.12080418E-06 -0.15320560E-06
 -0.18341097E-06 -0.21116822E-06 -0.23625459E-06 -0.25847819E-06 -0.27767922E-06
 -0.29373084E-06 -0.30653977E-06 -0.31604650E-06 -0.32222514E-06 -0.32508299E-06
 -0.32465983E-06 -0.32102681E-06 -0.31428514E-06 -0.30456448E-06 -0.29202113E-06
 -0.27683590E-06 -0.25921189E-06 -0.23937206E-06 -0.21755660E-06 -0.19402032E-06
 -0.16902978E-06 -0.14286052E-06 -0.11579414E-06 -0.88115459E-07 -0.60109643E-07
 -0.32059432E-07 -0.42424128E-08  0.23071588E-07  0.49622992E-07  0.75164801E-07
  0.99464766E-07  0.12230737E-06  0.14349562E-06  0.16285257E-06  0.18022273E-06
  0.19547312E-06  0.20849413E-06  0.21920019E-06  0.22753009E-06  0.23344716E-06
  0.23693910E-06  0.23801770E-06  0.23671821E-06  0.23309859E-06  0.22723847E-06
  0.21923802E-06  0.20921650E-06  0.19731081E-06  0.18367377E-06  0.16847234E-06
  0.15188574E-06  0.13410341E-06  0.11532305E-06  0.95748448E-07  0.75587422E-07
  0.55049697E-07  0.34344818E-07  0.13680101E-07 -0.67413515E-08 -0.26722566E-07
 -0.46074509E-07 -0.64617792E-07 -0.82184253E-07 -0.98618397E-07 -0.11377869E-06
 -0.12753867E-06 -0.13978796E-06 -0.15043300E-06 -0.15939768E-06 -0.16662382E-06
 -0.17207131E-06 -0.17571829E-06 -0.17756096E-06 -0.17761333E-06 -0.17590676E-06
 -0.17248934E-06 -0.16742511E-06 -0.16079317E-06 -0.15268663E-06 -0.14321145E-06
 -0.13248516E-06 -0.12063554E-06 -0.10779915E-06 -0.94119874E-07 -0.79747345E-07
 -0.64835405E-07 -0.49540515E-07 -0.34020177E-07 -0.18431372E-07 -0.29290344E-08
  0.12335436E-07  0.27215591E-07  0.41571288E-07  0.55269950E-07  0.68187739E-07
  0.80210615E-07  0.91235289E-07  0.10117005E-06  0.10993546E-06  0.11746494E-06
  0.12370519E-06  0.12861647E-06  0.13217280E-06  0.13436195E-06  0.13518534E-06
  0.13465780E-06  0.13280717E-06  0.12967386E-06  0.12531020E-06  0.11977973E-06
  0.11315643E-06  0.10552378E-06  0.96973781E-07  0.87605953E-07  0.77526194E-07
  0.66845653E-07  0.55679553E-07  0.44145991E-07  0.32364733E-07  0.20456016E-07
  0.85393538E-08 -0.32676150E-08 -0.14850256E-07 -0.26098010E-07 -0.36905416E-07
 -0.47173055E-07 -0.56808432E-07 -0.65726771E-07 -0.73851718E-07 -0.81115954E-07
 -0.87461711E-07 -0.92841185E-07 -0.97216839E-07 -0.10056161E-06 -0.10285902E-06
 -0.10410312E-06 -0.10429845E-06 -0.10345977E-06 -0.10161178E-06 -0.98788711E-07
 -0.95033833E-07 -0.90398900E-07 -0.84943499E-07 -0.78734344E-07 -0.71844509E-07
 -0.64352611E-07 -0.56341950E-07 -0.47899623E-07 -0.39115604E-07 -0.30081820E-07
 -0.20891219E-07 -0.11636840E-07 -0.24108993E-08  0.66960999E-08  0.15596230E-07
  0.24204964E-07  0.32441945E-07  0.40231720E-07  0.47504395E-07  0.54196242E-07
  0.60250226E-07  0.65616459E-07  0.70252586E-07  0.74124079E-07  0.77204458E-07
  0.79475427E-07  0.80926929E-07  0.81557119E-07  0.81372253E-07  0.80386510E-07
  0.78621726E-07  0.76107066E-07  0.72878628E-07  0.68978982E-07  0.64456656E-07
  0.59365567E-07  0.53764415E-07  0.47716034E-07  0.41286710E-07  0.34545484E-07
  0.27563431E-07  0.20412932E-07  0.13166945E-07  0.58982805E-08 -0.13211102E-08
 -0.84208290E-08 -0.15332698E-07 -0.21991396E-07 -0.28335058E-07 -0.34305827E-07
 -0.39850370E-07 -0.44920328E-07 -0.49472718E-07 -0.53470282E-07 -0.56881759E-07
 -0.59682113E-07 -0.61852678E-07 -0.63381258E-07 -0.64262143E-07 -0.64496075E-07
 -0.64090147E-07 -0.63057638E-07 -0.61417794E-07 -0.59195552E-07 -0.56421215E-07
 -0.53130071E-07 -0.49361982E-07 -0.45160921E-07 -0.40574483E-07 -0.35653367E-07
 -0.30450832E-07 -0.25022141E-07 -0.19423983E-07 -0.13713905E-07 -0.79497304E-08
 -0.21889875E-08  0.35116488E-08  0.90969017E-08  0.14513415E-07  0.19710248E-07
  0.24639344E-07  0.29255957E-07  0.33519047E-07  0.37391630E-07  0.40841079E-07
  0.43839391E-07  0.46363387E-07  0.48394881E-07  0.49920780E-07  0.50933146E-07
  0.51429199E-07  0.51411272E-07  0.50886719E-07  0.49867768E-07  0.48371336E-07
  0.46418797E-07  0.44035708E-07  0.41251501E-07  0.38099142E-07  0.34614756E-07
  0.30837226E-07  0.26807780E-07  0.22569547E-07  0.18167114E-07  0.13646061E-07
  0.90525074E-08  0.44326471E-08 -0.16770298E-09 -0.47035480E-08 -0.91311451E-08
 -0.13408415E-07 -0.17495332E-07 -0.21354288E-07 -0.24950428E-07 -0.28251955E-07
 -0.31230401E-07 -0.33860858E-07 -0.36122174E-07 -0.37997113E-07 -0.39472467E-07
 -0.40539133E-07 -0.41192143E-07 -0.41430662E-07 -0.41257937E-07 -0.40681209E-07
 -0.39711589E-07 -0.38363899E-07 -0.36656473E-07 -0.34610930E-07 -0.32251920E-07
 -0.29606840E-07 -0.26705527E-07 -0.23579934E-07 -0.20263790E-07 -0.16792239E-07
 -0.13201485E-07 -0.95284156E-08 -0.58102339E-08 -0.20840904E-08  0.16132819E-08
  0.52459215E-08  0.87789809E-08  0.12179053E-07  0.15414479E-07  0.18455637E-07
  0.21275202E-07  0.23848388E-07  0.26153153E-07  0.28170380E-07  0.29884027E-07
  0.31281242E-07  0.32352447E-07  0.33091390E-07  0.33495163E-07  0.33564181E-07
  0.33302144E-07  0.32715948E-07  0.31815582E-07  0.30613988E-07  0.29126893E-07
  0.27372621E-07  0.25371880E-07  0.23147524E-07  0.20724307E-07  0.18128609E-07
  0.15388162E-07  0.12531755E-07  0.95889439E-08  0.65897456E-08  0.35643430E-08
  0.54278439E-09 -0.24453089E-08 -0.53710273E-08 -0.82064469E-08 -0.10924890E-07
 -0.13501171E-07 -0.15911822E-07 -0.18135304E-07 -0.20152189E-07 -0.21945326E-07
 -0.23499978E-07 -0.24803936E-07 -0.25847603E-07 -0.26624060E-07 -0.27129095E-07
 -0.27361212E-07 -0.27321608E-07 -0.27014129E-07 -0.26445198E-07 -0.25623719E-07
 -0.24560958E-07 -0.23270403E-07 -0.21767604E-07 -0.20069993E-07 -0.18196689E-07
 -0.16168293E-07 -0.14006663E-07 -0.11734687E-07 -0.93760432E-08 -0.69549607E-08
 -0.44959728E-08 -0.20236744E-08  0.43751982E-09  0.28636126E-08  0.52312538E-08
  0.75179611E-08  0.97023286E-08  0.11764223E-07  0.13684964E-07  0.15447490E-07
  0.17036502E-07  0.18438595E-07  0.19642363E-07  0.20638484E-07  0.21419788E-07
  0.21981296E-07  0.22320244E-07  0.22436084E-07  0.22330456E-07  0.22007149E-07
  0.21472035E-07  0.20732986E-07  0.19799772E-07  0.18683941E-07  0.17398687E-07
  0.15958697E-07  0.14379989E-07  0.12679740E-07  0.10876104E-07  0.89880214E-08
  0.70350254E-08  0.50370423E-08  0.30141919E-08  0.98658843E-09 -0.10258561E-08
 -0.30036238E-08 -0.49277767E-08 -0.67801348E-08 -0.85434451E-08 -0.10201539E-07
 -0.11739476E-07 -0.13143677E-07 -0.14402035E-07 -0.15504022E-07 -0.16440765E-07
 -0.17205119E-07 -0.17791713E-07 -0.18196979E-07 -0.18419166E-07 -0.18458335E-07
 -0.18316333E-07 -0.17996758E-07 -0.17504898E-07 -0.16847662E-07 -0.16033489E-07
 -0.15072250E-07 -0.13975131E-07 -0.12754509E-07 -0.11423818E-07 -0.99974039E-08
 -0.84903731E-08 -0.69184360E-08 -0.52977452E-08 -0.36447334E-08 -0.19759496E-08
 -0.30789642E-09  0.13431304E-08  0.29611991E-08  0.45308934E-08  0.60374568E-08
  0.74669284E-08  0.88062689E-08  0.10043477E-07  0.11167694E-07  0.12169295E-07
  0.13039973E-07  0.13772796E-07  0.14362266E-07  0.14804347E-07  0.15096495E-07
  0.15237655E-07  0.15228263E-07  0.15070218E-07  0.14766847E-07  0.14322855E-07
  0.13744263E-07  0.13038331E-07  0.12213472E-07  0.11279160E-07  0.10245824E-07
  0.91247297E-08  0.79278660E-08  0.66678144E-08  0.53576209E-08  0.40106637E-08
  0.26405196E-08  0.12608289E-08 -0.11483825E-09 -0.14731136E-08 -0.28009594E-08
 -0.40857904E-08 -0.53155914E-08 -0.64790262E-08 -0.75655401E-08 -0.85654540E-08
 -0.94700485E-08 -0.10271638E-07 -0.10963632E-07 -0.11540587E-07 -0.11998245E-07
 -0.12333559E-07 -0.12544710E-07 -0.12631113E-07 -0.12593403E-07 -0.12433418E-07
 -0.12154164E-07 -0.11759772E-07 -0.11255445E-07 -0.10647392E-07 -0.99427593E-08
 -0.91495494E-08 -0.82765308E-08 -0.73331441E-08 -0.63294017E-08 -0.52757830E-08
 -0.41831278E-08 -0.30625271E-08 -0.19252127E-08 -0.78244617E-09  0.35459152E-09
  0.14749083E-08  0.25678055E-08  0.36229780E-08  0.46306089E-08  0.55814582E-08
  0.64669463E-08  0.72792300E-08  0.80112706E-08  0.86568929E-08  0.92108346E-08
  0.96687863E-08  0.10027421E-07  0.10284415E-07  0.10438459E-07  0.10489261E-07
  0.10437535E-07  0.10284985E-07  0.10034272E-07  0.96889795E-08  0.92535675E-08
  0.87333171E-08  0.81342713E-08  0.74631683E-08  0.67273669E-08  0.59347675E-08
  0.50937280E-08  0.42129766E-08  0.33015233E-08  0.23685696E-08  0.14234178E-08
  0.47537998E-09 -0.46631332E-09 -0.13926021E-08 -0.22946834E-08 -0.31640936E-08
 -0.39927855E-08 -0.47732006E-08 -0.54983358E-08 -0.61618054E-08 -0.67578955E-08
 -0.72816132E-08 -0.77287259E-08 -0.80957934E-08 -0.83801908E-08 -0.85801235E-08
 -0.86946348E-08 -0.87236059E-08 -0.86677483E-08 -0.85285873E-08 -0.83084381E-08
 -0.80103734E-08 -0.76381832E-08 -0.71963298E-08 -0.66898966E-08 -0.61245324E-08
 -0.55063908E-08 -0.48420655E-08 -0.41385202E-08 -0.34030164E-08 -0.26430382E-08
 -0.18662176E-08 -0.10802590E-08 -0.29286480E-09  0.48833781E-09  0.12558701E-08
  0.20024727E-08  0.27211741E-08  0.34053555E-08  0.40488101E-08  0.46457975E-08
  0.51910925E-08  0.56800286E-08  0.61085366E-08  0.64731776E-08  0.67711699E-08
  0.70004082E-08  0.71594760E-08  0.72476500E-08  0.72648977E-08  0.72118698E-08
  0.70898855E-08  0.69009136E-08  0.66475467E-08  0.63329694E-08  0.59609202E-08
  0.55356479E-08  0.50618637E-08  0.45446903E-08  0.39896078E-08  0.34023984E-08
  0.27890878E-08  0.21558843E-08  0.15091165E-08  0.85516965E-09  0.20042231E-09
 -0.44881493E-09 -0.10863590E-08 -0.17062110E-08 -0.23026112E-08 -0.28700912E-08
 -0.34035237E-08 -0.38981693E-08 -0.43497182E-08 -0.47543266E-08 -0.51086474E-08
   19.8421228800787      T
 Non local Part
           0           2   1.02617976221064     
   5.95455378459400        10.0284469344962        10.0284469344962     
   16.8921018343605     
 Reciprocal Space Part
 -0.15928059E+02 -0.16641333E+02 -0.18768196E+02 -0.22270030E+02 -0.27083302E+02
 -0.33120803E+02 -0.40273336E+02 -0.48411830E+02 -0.57389823E+02 -0.67046274E+02
 -0.77208638E+02 -0.87696137E+02 -0.98323164E+02 -0.10890275E+03 -0.11925001E+03
 -0.12918554E+03 -0.13853859E+03 -0.14715015E+03 -0.15487561E+03 -0.16158723E+03
 -0.16717618E+03 -0.17155418E+03 -0.17465471E+03 -0.17643379E+03 -0.17687031E+03
 -0.17596587E+03 -0.17374422E+03 -0.17025028E+03 -0.16554877E+03 -0.15972247E+03
 -0.15287019E+03 -0.14510454E+03 -0.13654938E+03 -0.12733724E+03 -0.11760663E+03
 -0.10749925E+03 -0.97157357E+02 -0.86721101E+02 -0.76326084E+02 -0.66101063E+02
 -0.56165894E+02 -0.46629733E+02 -0.37589531E+02 -0.29128839E+02 -0.21316933E+02
 -0.14208273E+02 -0.78422807E+01 -0.22434386E+01  0.25783112E+01  0.66268936E+01
  0.99191755E+01  0.12483824E+02  0.14359983E+02  0.15595808E+02  0.16246895E+02
  0.16374648E+02  0.16044625E+02  0.15324897E+02  0.14284459E+02  0.12991728E+02
  0.11513153E+02  0.99119658E+01  0.82470891E+01  0.65722246E+01  0.49351229E+01
  0.33770466E+01  0.19324237E+01  0.62868978E+00 -0.51369295E+00 -0.14810498E+01
 -0.22661583E+01 -0.28677819E+01 -0.32900937E+01 -0.35420126E+01 -0.36364750E+01
 -0.35896662E+01 -0.34202331E+01 -0.31485016E+01 -0.27957184E+01 -0.23833353E+01
 -0.19323524E+01 -0.14627335E+01 -0.99290347E+00 -0.53933598E+00 -0.11623538E+00
  0.26468576E+00  0.59433456E+00  0.86627515E+00  0.10766816E+01  0.12242146E+01
  0.13098321E+01  0.13365436E+01  0.13091223E+01  0.12337848E+01  0.11178524E+01
  0.96940572E+00  0.79694341E+00  0.60905584E+00  0.41412284E+00  0.22004327E+00
 Real Space Part
 -0.99454585E+03 -0.99411144E+03 -0.99280826E+03 -0.99063657E+03 -0.98759678E+03
 -0.98368952E+03 -0.97891565E+03 -0.97327633E+03 -0.96677307E+03 -0.95940778E+03
 -0.95118286E+03 -0.94210130E+03 -0.93216675E+03 -0.92138361E+03 -0.90975717E+03
 -0.89729372E+03 -0.88400062E+03 -0.86988648E+03 -0.85496126E+03 -0.83923640E+03
 -0.82272495E+03 -0.80544167E+03 -0.78740323E+03 -0.76862826E+03 -0.74913748E+03
 -0.72895388E+03 -0.70810273E+03 -0.68661176E+03 -0.66451118E+03 -0.64183381E+03
 -0.61861512E+03 -0.59489326E+03 -0.57070910E+03 -0.54610624E+03 -0.52113101E+03
 -0.49583240E+03 -0.47026203E+03 -0.44447406E+03 -0.41852509E+03 -0.39247400E+03
 -0.36638179E+03 -0.34031140E+03 -0.31432747E+03 -0.28849610E+03 -0.26288454E+03
 -0.23756092E+03 -0.21259389E+03 -0.18805224E+03 -0.16400455E+03 -0.14051874E+03
 -0.11766167E+03 -0.95498711E+02 -0.74093249E+02 -0.53506257E+02 -0.33795821E+02
 -0.15016682E+02  0.27802187E+01  0.19548176E+02  0.35245145E+02  0.49834137E+02
  0.63283584E+02  0.75567674E+02  0.86666641E+02  0.96567011E+02  0.10526180E+03
  0.11275067E+03  0.11903999E+03  0.12414291E+03  0.12807932E+03  0.13087575E+03
  0.13256525E+03  0.13318722E+03  0.13278711E+03  0.13141615E+03  0.12913104E+03
  0.12599350E+03  0.12206995E+03  0.11743098E+03  0.11215094E+03  0.10630746E+03
  0.99980955E+02  0.93254134E+02  0.86211523E+02  0.78939004E+02  0.71523327E+02
  0.64051706E+02  0.56611359E+02  0.49289146E+02  0.42171174E+02  0.35342468E+02
  0.28886645E+02  0.22885623E+02  0.17419355E+02  0.12565580E+02  0.83995933E+01
  0.49940737E+01  0.24188537E+01  0.73977199E+00  0.16678646E-01 -0.63584908E-15
 Reciprocal Space Part
  0.17204511E+02  0.17606576E+02  0.18805335E+02  0.20778635E+02  0.23490033E+02
  0.26889507E+02  0.30914440E+02  0.35490825E+02  0.40534712E+02  0.45953817E+02
  0.51649305E+02  0.57517667E+02  0.63452689E+02  0.69347446E+02  0.75096289E+02
  0.80596788E+02  0.85751590E+02  0.90470146E+02  0.94670286E+02  0.98279608E+02
  0.10123665E+03  0.10349183E+03  0.10500815E+03  0.10576159E+03  0.10574135E+03
  0.10494970E+03  0.10340165E+03  0.10112439E+03  0.98156472E+02  0.94546818E+02
  0.90353515E+02  0.85642510E+02  0.80486166E+02  0.74961738E+02  0.69149810E+02
  0.63132706E+02  0.56992937E+02  0.50811685E+02  0.44667380E+02  0.38634381E+02
  0.32781788E+02  0.27172414E+02  0.21861916E+02  0.16898115E+02  0.12320503E+02
  0.81599320E+01  0.44385035E+01  0.11696346E+01 -0.16417014E+01 -0.39985727E+01
 -0.59115433E+01 -0.73980018E+01 -0.84813862E+01 -0.91903253E+01 -0.95577228E+01
 -0.96198045E+01 -0.94151541E+01 -0.89837588E+01 -0.83660855E+01 -0.76022080E+01
 -0.67310008E+01 -0.57894151E+01 -0.48118480E+01 -0.38296148E+01 -0.28705291E+01
 -0.19585950E+01 -0.11138105E+01 -0.35207999E+00  0.31476936E+00  0.87887520E+00
  0.13361404E+01  0.16859576E+01  0.19308702E+01  0.20761823E+01  0.21295328E+01
  0.21004447E+01  0.19998656E+01  0.18397104E+01  0.16324189E+01  0.13905389E+01
  0.11263433E+01  0.85148994E+00  0.57672981E+00  0.31166738E+00  0.64576473E-01
 -0.15772823E+00 -0.34996438E+00 -0.50840250E+00 -0.63083723E+00 -0.71651433E+00
 -0.76601901E+00 -0.78113209E+00 -0.76466091E+00 -0.72025226E+00 -0.65219429E+00
 -0.56521473E+00 -0.46428170E+00 -0.35441343E+00 -0.24050204E+00 -0.12715602E+00
 Real Space Part
  0.59174176E+03  0.59148577E+03  0.59071783E+03  0.58943808E+03  0.58764676E+03
  0.58534421E+03  0.58253091E+03  0.57920752E+03  0.57537489E+03  0.57103411E+03
  0.56618655E+03  0.56083390E+03  0.55497827E+03  0.54862219E+03  0.54176871E+03
  0.53442145E+03  0.52658468E+03  0.51826339E+03  0.50946336E+03  0.50019123E+03
  0.49045460E+03  0.48026208E+03  0.46962337E+03  0.45854933E+03  0.44705209E+03
  0.43514505E+03  0.42284300E+03  0.41016215E+03  0.39712019E+03  0.38373633E+03
  0.37003134E+03  0.35602759E+03  0.34174903E+03  0.32722123E+03  0.31247137E+03
  0.29752819E+03  0.28242201E+03  0.26718463E+03  0.25184929E+03  0.23645058E+03
  0.22102436E+03  0.20560764E+03  0.19023842E+03  0.17495559E+03  0.15979872E+03
  0.14480792E+03  0.13002360E+03  0.11548630E+03  0.10123640E+03  0.87313960E+02
  0.73758402E+02  0.60608286E+02  0.47901031E+02  0.35672649E+02  0.23957468E+02
  0.12787863E+02  0.21939916E+01 -0.77964697E+01 -0.17158569E+02 -0.25870317E+02
 -0.33912901E+02 -0.41270881E+02 -0.47932366E+02 -0.53889155E+02 -0.59136860E+02
 -0.63674990E+02 -0.67507007E+02 -0.70640349E+02 -0.73086414E+02 -0.74860518E+02
 -0.75981810E+02 -0.76473167E+02 -0.76361043E+02 -0.75675300E+02 -0.74449008E+02
 -0.72718228E+02 -0.70521766E+02 -0.67900911E+02 -0.64899178E+02 -0.61562015E+02
 -0.57936524E+02 -0.54071180E+02 -0.50015532E+02 -0.45819950E+02 -0.41535326E+02
 -0.37212841E+02 -0.32903694E+02 -0.28658891E+02 -0.24529006E+02 -0.20563994E+02
 -0.16812996E+02 -0.13324163E+02 -0.10144507E+02 -0.73197500E+01 -0.48941856E+01
 -0.29105813E+01 -0.14100399E+01 -0.43134069E+00 -0.96650928E-02  0.36139339E-15
 Non local Part
           1           2   1.02617976221064     
   2.08596918172395        5.50703300616102        5.50703300616102     
   14.5992473800430     
 Reciprocal Space Part
  0.00000000E+00  0.18373883E+01  0.36118836E+01  0.52619538E+01  0.67287588E+01
  0.79574222E+01  0.88982150E+01  0.95076270E+01  0.97493012E+01  0.95948113E+01
  0.90242660E+01  0.80267286E+01  0.66004411E+01  0.47528522E+01  0.25004469E+01
 -0.13161442E+00 -0.31100406E+01 -0.63941221E+01 -0.99365960E+01 -0.13684642E+02
 -0.17580985E+02 -0.21565086E+02 -0.25574380E+02 -0.29545550E+02 -0.33415797E+02
 -0.37124084E+02 -0.40612324E+02 -0.43826489E+02 -0.46717622E+02 -0.49242715E+02
 -0.51365465E+02 -0.53056858E+02 -0.54295609E+02 -0.55068422E+02 -0.55370081E+02
 -0.55203381E+02 -0.54578882E+02 -0.53514526E+02 -0.52035100E+02 -0.50171580E+02
 -0.47960363E+02 -0.45442417E+02 -0.42662360E+02 -0.39667490E+02 -0.36506804E+02
 -0.33230006E+02 -0.29886542E+02 -0.26524677E+02 -0.23190631E+02 -0.19927791E+02
 -0.16776020E+02 -0.13771067E+02 -0.10944082E+02 -0.83212635E+01 -0.59236152E+01
 -0.37668289E+01 -0.18612855E+01 -0.21216788E+00  0.11803202E+01  0.23206413E+01
  0.32175275E+01  0.38835142E+01  0.43344187E+01  0.45887776E+01  0.46672593E+01
  0.45920664E+01  0.43863421E+01  0.40735953E+01  0.36771558E+01  0.32196713E+01
  0.27226569E+01  0.22061020E+01  0.16881436E+01  0.11848072E+01  0.70981973E+00
  0.27449176E+00 -0.11233040E+00 -0.44424758E+00 -0.71723018E+00 -0.92948617E+00
 -0.10812823E+01 -0.11747264E+01 -0.12135190E+01 -0.12026837E+01 -0.11482852E+01
 -0.10571421E+01 -0.93654516E+00 -0.79398622E+00 -0.63690567E+00 -0.47246383E+00
 -0.30734099E+00 -0.14756956E+00  0.15992848E-02  0.13579326E+00  0.25158076E+00
  0.34649790E+00  0.41904256E+00  0.46863831E+00  0.49557166E+00  0.50090657E+00
 Real Space Part
  0.00000000E+00 -0.14949862E+02 -0.29850157E+02 -0.44651482E+02 -0.59304761E+02
 -0.73761414E+02 -0.87973514E+02 -0.10189395E+03 -0.11547660E+03 -0.12867646E+03
 -0.14144985E+03 -0.15375453E+03 -0.16554986E+03 -0.17679697E+03 -0.18745890E+03
 -0.19750074E+03 -0.20688977E+03 -0.21559562E+03 -0.22359036E+03 -0.23084868E+03
 -0.23734797E+03 -0.24306847E+03 -0.24799335E+03 -0.25210880E+03 -0.25540420E+03
 -0.25787209E+03 -0.25950834E+03 -0.26031217E+03 -0.26028619E+03 -0.25943648E+03
 -0.25777258E+03 -0.25530749E+03 -0.25205773E+03 -0.24804323E+03 -0.24328738E+03
 -0.23781691E+03 -0.23166182E+03 -0.22485535E+03 -0.21743378E+03 -0.20943634E+03
 -0.20090506E+03 -0.19188457E+03 -0.18242190E+03 -0.17256629E+03 -0.16236891E+03
 -0.15188260E+03 -0.14116165E+03 -0.13026138E+03 -0.11923796E+03 -0.10814797E+03
 -0.97048082E+02 -0.85994740E+02 -0.75043743E+02 -0.64249899E+02 -0.53666644E+02
 -0.43345666E+02 -0.33336543E+02 -0.23686375E+02 -0.14439442E+02 -0.56368746E+01
  0.26836610E+01  0.10488244E+02  0.17746958E+02  0.24434117E+02  0.30528451E+02
  0.36013268E+02  0.40876558E+02  0.45111073E+02  0.48714349E+02  0.51688699E+02
  0.54041156E+02  0.55783373E+02  0.56931491E+02  0.57505954E+02  0.57531310E+02
  0.57035967E+02  0.56051918E+02  0.54614449E+02  0.52761840E+02  0.50535017E+02
  0.47977233E+02  0.45133720E+02  0.42051339E+02  0.38778257E+02  0.35363593E+02
  0.31857116E+02  0.28308915E+02  0.24769120E+02  0.21287614E+02  0.17913776E+02
  0.14696241E+02  0.11682671E+02  0.89195604E+01  0.64520352E+01  0.43236838E+01
  0.25764457E+01  0.12504199E+01  0.38242279E+00  0.13427730E-01 -0.27452160E-15
 Reciprocal Space Part
  0.00000000E+00 -0.31626211E+00 -0.61399672E+00 -0.87510049E+00 -0.10823089E+01
 -0.12195918E+01 -0.12725214E+01 -0.12286043E+01 -0.10775695E+01 -0.81160716E+00
 -0.42555242E+00  0.82990293E-01  0.71358393E+00  0.14629583E+01  0.23250718E+01
  0.32912338E+01  0.43502841E+01  0.54888259E+01  0.66915061E+01  0.79413357E+01
  0.92200446E+01  0.10508461E+02  0.11786907E+02  0.13035603E+02  0.14235067E+02
  0.15366510E+02  0.16412208E+02  0.17355845E+02  0.18182828E+02  0.18880560E+02
  0.19438665E+02  0.19849163E+02  0.20106596E+02  0.20208098E+02  0.20153408E+02
  0.19944830E+02  0.19587146E+02  0.19087469E+02  0.18455064E+02  0.17701122E+02
  0.16838497E+02  0.15881431E+02  0.14845239E+02  0.13745995E+02  0.12600209E+02
  0.11424504E+02  0.10235302E+02  0.90485248E+01  0.78793209E+01  0.67418105E+01
  0.56488685E+01  0.46119391E+01  0.36408885E+01  0.27438973E+01  0.19273918E+01
  0.11960166E+01  0.55264436E+00 -0.15761915E-02 -0.46713944E+00 -0.84607070E+00
 -0.11417877E+01 -0.13589401E+01 -0.15032310E+01 -0.15812273E+01 -0.16001612E+01
 -0.15677305E+01 -0.14919010E+01 -0.13807153E+01 -0.12421135E+01 -0.10837678E+01
 -0.91293524E+00 -0.73633000E+00 -0.56001850E+00 -0.38933690E+00 -0.22883270E+00
 -0.82229726E-01  0.47583913E-01  0.15854629E+00  0.24939217E+00  0.31960573E+00
  0.36935798E+00  0.39943161E+00  0.41113599E+00  0.40621557E+00  0.38675436E+00
  0.35507939E+00  0.31366605E+00  0.26504752E+00  0.21173063E+00  0.15612001E+00
  0.10045195E+00  0.46739241E-01 -0.32723730E-02 -0.48135750E-01 -0.86721884E-01
 -0.11822781E+00 -0.14217357E+00 -0.15838912E+00 -0.16699249E+00 -0.16836042E+00
 Real Space Part
  0.00000000E+00  0.53588964E+01  0.10700422E+02  0.16007264E+02  0.21262220E+02
  0.26448262E+02  0.31548585E+02  0.36546667E+02  0.41426326E+02  0.46171772E+02
  0.50767662E+02  0.55199158E+02  0.59451975E+02  0.63512439E+02  0.67367532E+02
  0.71004949E+02  0.74413143E+02  0.77581374E+02  0.80499756E+02  0.83159300E+02
  0.85551958E+02  0.87670663E+02  0.89509366E+02  0.91063072E+02  0.92327874E+02
  0.93300981E+02  0.93980745E+02  0.94366680E+02  0.94459488E+02  0.94261063E+02
  0.93774511E+02  0.93004145E+02  0.91955493E+02  0.90635285E+02  0.89051443E+02
  0.87213065E+02  0.85130397E+02  0.82814803E+02  0.80278729E+02  0.77535650E+02
  0.74600026E+02  0.71487234E+02  0.68213506E+02  0.64795850E+02  0.61251968E+02
  0.57600168E+02  0.53859264E+02  0.50048477E+02  0.46187321E+02  0.42295492E+02
  0.38392745E+02  0.34498774E+02  0.30633085E+02  0.26814861E+02  0.23062843E+02
  0.19395190E+02  0.15829357E+02  0.12381970E+02  0.90687012E+01  0.59041558E+01
  0.29017636E+01  0.73678175E-01 -0.25693140E+01 -0.50178731E+01 -0.72641746E+01
 -0.93019639E+01 -0.11126599E+02 -0.12735076E+02 -0.14126044E+02 -0.15299804E+02
 -0.16258289E+02 -0.17005036E+02 -0.17545140E+02 -0.17885196E+02 -0.18033230E+02
 -0.17998615E+02 -0.17791985E+02 -0.17425127E+02 -0.16910887E+02 -0.16263046E+02
 -0.15496215E+02 -0.14625711E+02 -0.13667442E+02 -0.12637790E+02 -0.11553496E+02
 -0.10431548E+02 -0.92890724E+01 -0.81432347E+01 -0.70111396E+01 -0.59097428E+01
 -0.48557656E+01 -0.38656162E+01 -0.29553201E+01 -0.21404518E+01 -0.14360739E+01
 -0.85669718E+00 -0.41621463E+00 -0.12742411E+00 -0.44406279E-02  0.90339894E-16
 PAW radial sets
         357   1.04059493489919     
(5E20.12)                                
 augmentation charges (non sperical)
 -0.341766679727E-01 -0.598950556469E-01 -0.116040782589E-01 -0.434693282696E-01 -0.598950556469E-01
 -0.104823045634E+00 -0.206873595040E-01 -0.762016691738E-01 -0.116040782589E-01 -0.206873595040E-01
  0.138576928669E-02 -0.297574221589E-02 -0.434693282696E-01 -0.762016691738E-01 -0.297574221589E-02
 -0.249783677576E-01
 uccopancies in atom
  0.200000000197E+01  0.000000000000E+00  0.000000000000E+00  0.000000000000E+00  0.000000000000E+00
  0.000000000000E+00  0.000000000000E+00  0.000000000000E+00  0.000000000000E+00  0.000000000000E+00
  0.333333333677E+00  0.000000000000E+00  0.000000000000E+00  0.000000000000E+00  0.000000000000E+00
  0.000000000000E+00
 grid
  0.348587143957E-04  0.359922328260E-04  0.371626104479E-04  0.383710458303E-04  0.396187765166E-04
  0.409070802922E-04  0.422372764926E-04  0.436107273550E-04  0.450288394132E-04  0.464930649377E-04
  0.480049034234E-04  0.495659031252E-04  0.511776626430E-04  0.528418325595E-04  0.545601171301E-04
  0.563342760283E-04  0.581661261479E-04  0.600575434635E-04  0.620104649517E-04  0.640268905747E-04
  0.661088853287E-04  0.682585813581E-04  0.704781801395E-04  0.727699547361E-04  0.751362521253E-04
  0.775794956024E-04  0.801021872622E-04  0.827069105614E-04  0.853963329644E-04  0.881732086746E-04
  0.910403814554E-04  0.940007875424E-04  0.970574586500E-04  0.100213525077E-03  0.103472218910E-03
  0.106836877337E-03  0.110310946063E-03  0.113897982837E-03  0.117601661098E-03  0.121425773736E-03
  0.125374236978E-03  0.129451094394E-03  0.133660521043E-03  0.138006827745E-03  0.142494465498E-03
  0.147128030036E-03  0.151912266533E-03  0.156852074466E-03  0.161952512630E-03  0.167218804318E-03
  0.172656342675E-03  0.178270696214E-03  0.184067614524E-03  0.190053034155E-03  0.196233084702E-03
  0.202614095075E-03  0.209202599986E-03  0.216005346641E-03  0.223029301646E-03  0.230281658146E-03
  0.237769843186E-03  0.245501525323E-03  0.253484622476E-03  0.261727310032E-03  0.270238029224E-03
  0.279025495773E-03  0.288098708812E-03  0.297466960104E-03  0.307139843558E-03  0.317127265050E-03
  0.327439452574E-03  0.338086966710E-03  0.349080711443E-03  0.360431945330E-03  0.372152293024E-03
  0.384253757187E-03  0.396748730775E-03  0.409650009732E-03  0.422970806097E-03  0.436724761528E-03
  0.450925961278E-03  0.465588948616E-03  0.480728739723E-03  0.496360839067E-03  0.512501255285E-03
  0.529166517572E-03  0.546373692615E-03  0.564140402063E-03  0.582484840580E-03  0.601425794473E-03
  0.620982660936E-03  0.641175467907E-03  0.662024894586E-03  0.683552292608E-03  0.705779707909E-03
  0.728729903306E-03  0.752426381802E-03  0.776893410664E-03  0.802156046267E-03  0.828240159757E-03
  0.855172463546E-03  0.882980538666E-03  0.911692863017E-03  0.941338840526E-03  0.971948831267E-03
  0.100355418254E-02  0.103618726100E-02  0.106988148576E-02  0.110467136264E-02  0.114059251954E-02
  0.117768174284E-02  0.121597701517E-02  0.125551755421E-02  0.129634385294E-02  0.133849772105E-02
  0.138202232780E-02  0.142696224617E-02  0.147336349858E-02  0.152127360396E-02  0.157074162645E-02
  0.162181822562E-02  0.167455570838E-02  0.172900808251E-02  0.178523111201E-02  0.184328237416E-02
  0.190322131854E-02  0.196510932786E-02  0.202900978086E-02  0.209498811717E-02  0.216311190439E-02
  0.223345090721E-02  0.230607715894E-02  0.238106503519E-02  0.245849133010E-02  0.253843533497E-02
  0.262097891944E-02  0.270620661536E-02  0.279420570333E-02  0.288506630211E-02  0.297888146089E-02
  0.307574725460E-02  0.317576288227E-02  0.327903076864E-02  0.338565666906E-02  0.349574977776E-02
  0.360942283970E-02  0.372679226604E-02  0.384797825332E-02  0.397310490659E-02  0.410230036646E-02
  0.423569694039E-02  0.437343123812E-02  0.451564431161E-02  0.466248179947E-02  0.481409407612E-02
  0.497063640578E-02  0.513226910147E-02  0.529915768921E-02  0.547147307748E-02  0.564939173230E-02
  0.583309585793E-02  0.602277358343E-02  0.621861915538E-02  0.642083313676E-02  0.662962261235E-02
  0.684520140082E-02  0.706779027368E-02  0.729761718140E-02  0.753491748681E-02  0.777993420616E-02
  0.803291825799E-02  0.829412872006E-02  0.856383309471E-02  0.884230758280E-02  0.912983736653E-02
  0.942671690154E-02  0.973325021839E-02  0.100497512340E-01  0.103765440731E-01  0.107139634000E-01
  0.110623547617E-01  0.114220749414E-01  0.117934923239E-01  0.121769872731E-01  0.125729525213E-01
  0.129817935716E-01  0.134039291130E-01  0.138397914490E-01  0.142898269409E-01  0.147544964642E-01
  0.152342758813E-01  0.157296565281E-01  0.162411457177E-01  0.167692672597E-01  0.173145619968E-01
  0.178775883584E-01  0.184589229327E-01  0.190591610571E-01  0.196789174278E-01  0.203188267297E-01
  0.209795442857E-01  0.216617467283E-01  0.223661326924E-01  0.230934235309E-01  0.238443640531E-01
  0.246197232877E-01  0.254202952703E-01  0.262468998566E-01  0.271003835620E-01  0.279816204282E-01
  0.288915129189E-01  0.298309928435E-01  0.308010223116E-01  0.318025947180E-01  0.328367357605E-01
  0.339045044898E-01  0.350069943944E-01  0.361453345203E-01  0.373206906273E-01  0.385342663828E-01
  0.397873045943E-01  0.410810884825E-01  0.424169429952E-01  0.437962361641E-01  0.452203805059E-01
  0.466908344689E-01  0.482091039264E-01  0.497767437191E-01  0.513953592471E-01  0.530666081141E-01
  0.547922018249E-01  0.565739075385E-01  0.584135498770E-01  0.603130127950E-01  0.622742415085E-01
  0.642992444871E-01  0.663900955109E-01  0.685489357938E-01  0.707779761772E-01  0.730794993930E-01
  0.754558624022E-01  0.779094988082E-01  0.804429213490E-01  0.830587244707E-01  0.857595869843E-01
  0.885482748091E-01  0.914276438049E-01  0.944006426974E-01  0.974703160971E-01  0.100639807618E+00
  0.103912363096E+00  0.107291333914E+00  0.110780180434E+00  0.114382475539E+00  0.118101908294E+00
  0.121942287724E+00  0.125907546712E+00  0.130001746030E+00  0.134229078496E+00  0.138593873268E+00
  0.143100600277E+00  0.147753874806E+00  0.152558462214E+00  0.157519282818E+00  0.162641416933E+00
  0.167930110071E+00  0.173390778316E+00  0.179029013870E+00  0.184850590778E+00  0.190861470844E+00
  0.197067809735E+00  0.203475963283E+00  0.210092493999E+00  0.216924177787E+00  0.223978010889E+00
  0.231261217047E+00  0.238781254899E+00  0.246545825622E+00  0.254562880814E+00  0.262840630642E+00
  0.271387552243E+00  0.280212398413E+00  0.289324206565E+00  0.298732307986E+00  0.308446337396E+00
  0.318476242809E+00  0.328832295724E+00  0.339525101645E+00  0.350565610939E+00  0.361965130052E+00
  0.373735333089E+00  0.385888273765E+00  0.398436397755E+00  0.411392555432E+00  0.424770015036E+00
  0.438582476254E+00  0.452844084252E+00  0.467569444164E+00  0.482773636045E+00  0.498472230316E+00
  0.514681303710E+00  0.531417455734E+00  0.548697825670E+00  0.566540110127E+00  0.584962581164E+00
  0.603984105000E+00  0.623624161338E+00  0.643902863313E+00  0.664840978087E+00  0.686459948119E+00
  0.708781913124E+00  0.731829732744E+00  0.755627009961E+00  0.780198115266E+00  0.805568211618E+00
  0.831763280213E+00  0.858810147090E+00  0.886736510604E+00  0.915570969792E+00  0.945343053659E+00
  0.976083251422E+00  0.100782304373E+01  0.104059493490E+01  0.107443248622E+01  0.110937035029E+01
  0.114544430654E+01  0.118269129785E+01  0.122114946840E+01  0.126085820272E+01  0.130185816602E+01
  0.134419134584E+01  0.138790109506E+01  0.143303217628E+01  0.147963080767E+01  0.152774471031E+01
  0.157742315703E+01  0.162871702291E+01  0.168167883734E+01  0.173636283786E+01  0.179282502565E+01
  0.185112322293E+01  0.191131713215E+01  0.197346839714E+01  0.203764066621E+01  0.210389965738E+01
  0.217231322566E+01  0.224295143249E+01  0.231588661760E+01  0.239119347297E+01  0.246894911942E+01
  0.254923318551E+01  0.263212788914E+01  0.271771812174E+01  0.280609153518E+01  0.289733863156E+01
  0.299155285588E+01  0.308883069175E+01
 aepotential
  0.262008592679E+05  0.258898191593E+05  0.255381953488E+05  0.251483268737E+05  0.247229394078E+05
  0.242648394939E+05  0.237771707291E+05  0.232629188316E+05  0.227253544411E+05  0.221675994954E+05
  0.215929358956E+05  0.210044304325E+05  0.204052508233E+05  0.197982354080E+05  0.191863442621E+05
  0.185722177539E+05  0.179583862664E+05  0.173472062547E+05  0.167408486752E+05  0.161412679757E+05
  0.155502401764E+05  0.149693420631E+05  0.143999462918E+05  0.138432398669E+05  0.133002291050E+05
  0.127717428254E+05  0.122584458487E+05  0.117608496516E+05  0.112793238467E+05  0.108141081532E+05
  0.103653248933E+05  0.993299111226E+04  0.951703057716E+04  0.911728534351E+04  0.873352678321E+04
  0.836546601887E+04  0.801276360037E+04  0.767503841936E+04  0.735187609011E+04  0.704283596515E+04
  0.674745849459E+04  0.646526967415E+04  0.619578918263E+04  0.593853058281E+04  0.569300943152E+04
  0.545874338819E+04  0.523525761106E+04  0.502208560698E+04  0.481876951833E+04  0.462486751159E+04
  0.443994668632E+04  0.426359020045E+04  0.409539671190E+04  0.393497693013E+04  0.378195988834E+04
  0.363598920683E+04  0.349672200738E+04  0.336383275182E+04  0.323701033888E+04  0.311595673598E+04
  0.300038868958E+04  0.289003744849E+04  0.278464598346E+04  0.268397135526E+04  0.258778155407E+04
  0.249585688022E+04  0.240798894195E+04  0.232397936963E+04  0.224364043323E+04  0.216679400109E+04
  0.209327113806E+04  0.202291145473E+04  0.195556284492E+04  0.189108155527E+04  0.182933072275E+04
  0.177018081267E+04  0.171350887736E+04  0.165919872032E+04  0.160713901410E+04  0.155722550639E+04
  0.150935901349E+04  0.146344432722E+04  0.141939230802E+04  0.137711756148E+04  0.133653974250E+04
  0.129758156074E+04  0.126017077503E+04  0.122423767245E+04  0.118971673269E+04  0.115654515081E+04
  0.112466360834E+04  0.109401565468E+04  0.106454719061E+04  0.103620732485E+04  0.100894705421E+04
  0.982720269853E+03  0.957482572816E+03  0.933191886327E+03  0.909808281150E+03  0.887293300703E+03
  0.865610723331E+03  0.844725686296E+03  0.824605059301E+03  0.805217223207E+03  0.786532020892E+03
  0.768520604749E+03  0.751155452281E+03  0.734410296219E+03  0.718260000615E+03  0.702680536953E+03
  0.687649006774E+03  0.673143388190E+03  0.659142730507E+03  0.645626901787E+03  0.632576688366E+03
  0.619973631618E+03  0.607800112026E+03  0.596039275581E+03  0.584674822790E+03  0.573691265683E+03
  0.563073783344E+03  0.552807954470E+03  0.542880177902E+03  0.533277266105E+03  0.523986565771E+03
  0.514995983980E+03  0.506293819973E+03  0.497868912702E+03  0.489710470032E+03  0.481808147151E+03
  0.474151977528E+03  0.466732374293E+03  0.459540125460E+03  0.452566321442E+03  0.445802423280E+03
  0.439240170850E+03  0.432871631953E+03  0.426689128417E+03  0.420685268082E+03  0.414852921054E+03
  0.409185201806E+03  0.403675457361E+03  0.398317265221E+03  0.393104417315E+03  0.388030913198E+03
  0.383090949248E+03  0.378278911429E+03  0.373589362976E+03  0.369017044554E+03  0.364556857863E+03
  0.360203863206E+03  0.355953274404E+03  0.351800448255E+03  0.347740873928E+03  0.343770184336E+03
  0.339884137152E+03  0.336078594826E+03  0.332349560069E+03  0.328693127358E+03  0.325105511498E+03
  0.321583024647E+03  0.318122070474E+03  0.314719157604E+03  0.311370880624E+03  0.308073916926E+03
  0.304825034711E+03  0.301621077261E+03  0.298458966409E+03  0.295335699857E+03  0.292248346596E+03
  0.289194044171E+03  0.286169998892E+03  0.283173479813E+03  0.280201823201E+03  0.277252423111E+03
  0.274322735108E+03  0.271410273122E+03  0.268512607887E+03  0.265627367300E+03  0.262752232507E+03
  0.259884940872E+03  0.257023282909E+03  0.254165102276E+03  0.251308295913E+03  0.248450813254E+03
  0.245590657686E+03  0.242725884613E+03  0.239854603939E+03  0.236974979028E+03  0.234085228664E+03
  0.231183626882E+03  0.228268504880E+03  0.225338251699E+03  0.222391316157E+03  0.219426207998E+03
  0.216441500159E+03  0.213435830437E+03  0.210407904017E+03  0.207356495765E+03  0.204280452970E+03
  0.201178698276E+03  0.198050232969E+03  0.194894140296E+03  0.191709589257E+03  0.188495838864E+03
  0.185252242556E+03  0.181978253349E+03  0.178673427880E+03  0.175337434888E+03  0.171970058271E+03
  0.168571207393E+03  0.165140922757E+03  0.161679385236E+03  0.158186926627E+03  0.154664038789E+03
  0.151111387518E+03  0.147529824398E+03  0.143920402588E+03  0.140284393805E+03  0.136623306128E+03
  0.132938905389E+03  0.129233237386E+03  0.125508652762E+03  0.121767833108E+03  0.118013819096E+03
  0.114250038622E+03  0.110480334702E+03  0.106708991259E+03  0.102940753962E+03  0.991808437731E+02
  0.954349575536E+02  0.917092520707E+02  0.880103028228E+02  0.843450313927E+02  0.807205914768E+02
  0.771442047667E+02  0.736229384796E+02  0.701634180401E+02  0.667714751667E+02  0.634517401269E+02
  0.602072044352E+02  0.570388042343E+02  0.539451122897E+02  0.509222746952E+02  0.479643818006E+02
  0.450645230917E+02  0.422167555239E+02  0.394191458531E+02  0.366777445474E+02  0.340108649606E+02
  0.314524009648E+02  0.290524210543E+02  0.268733640655E+02  0.249811680917E+02  0.234324388879E+02
  0.222605840460E+02  0.214648738731E+02  0.210062593294E+02  0.208124139785E+02  0.207916822566E+02
  0.208517857027E+02  0.209164133701E+02  0.209338881132E+02  0.208766705818E+02  0.207349208544E+02
  0.205086935429E+02  0.202018616028E+02  0.198186911262E+02  0.193625811682E+02  0.188360415235E+02
  0.182411525806E+02  0.175800309752E+02  0.168551308376E+02  0.160693473131E+02  0.152259785594E+02
  0.143286180335E+02  0.133810239166E+02  0.123870038038E+02  0.113503239174E+02  0.102746564409E+02
  0.916354290768E+01  0.802039206487E+01  0.684847970836E+01  0.565097140061E+01  0.443094395300E+01
  0.319142203175E+01  0.193541305269E+01  0.665957249815E+00 -0.613818447263E+00 -0.190063277357E+01
 -0.319097143349E+01 -0.448099486196E+01 -0.576643585464E+01 -0.704249217743E+01 -0.830372743391E+01
 -0.954399622538E+01 -0.107564339085E+02 -0.119335274765E+02 -0.130673245768E+02 -0.141497993603E+02
 -0.151733904816E+02 -0.161316943982E+02 -0.170202705610E+02 -0.178375043627E+02 -0.185854885685E+02
 -0.192709101287E+02 -0.199058797820E+02 -0.205083246017E+02 -0.211006975466E+02 -0.217043195425E+02
 -0.223259470676E+02 -0.229371498570E+02 -0.234601833961E+02 -0.237878897479E+02 -0.238477057533E+02
 -0.236607783712E+02 -0.233280796445E+02 -0.229577143455E+02 -0.226121388632E+02 -0.223072588622E+02
 -0.220353694940E+02 -0.217836554167E+02 -0.215419934519E+02 -0.213042536831E+02 -0.210672643140E+02
 -0.208295349482E+02 -0.205903205185E+02 -0.203491364898E+02 -0.201055393284E+02 -0.198590980478E+02
 -0.196094198293E+02 -0.193562076713E+02 -0.190992749396E+02 -0.188385704695E+02 -0.185741501141E+02
 -0.183061461774E+02 -0.180347216729E+02 -0.177600090375E+02 -0.174820667377E+02 -0.172008399219E+02
 -0.169161398848E+02 -0.166276582202E+02 -0.163350027183E+02 -0.160377608933E+02 -0.157355776673E+02
 -0.154282350389E+02 -0.151157200177E+02 -0.147982700597E+02 -0.144763901483E+02 -0.141508412862E+02
 -0.138226048583E+02 -0.134928302215E+02 -0.131627734120E+02 -0.128337376574E+02 -0.125070120771E+02
 -0.121838282279E+02 -0.118653198830E+02
 core charge-density
  0.434298024152E-04  0.462841067549E-04  0.493259122939E-04  0.525675269184E-04  0.560220655222E-04
  0.597035028319E-04  0.636267296799E-04  0.678076129531E-04  0.722630594495E-04  0.770110839053E-04
  0.820708814536E-04  0.874629048127E-04  0.932089465005E-04  0.993322264108E-04  0.105857485089E-03
  0.112811083089E-03  0.120221106790E-03  0.128117481104E-03  0.136532089517E-03  0.145498901927E-03
  0.155054110806E-03  0.165236276194E-03  0.176086480123E-03  0.187648491056E-03  0.199968939007E-03
  0.213097502014E-03  0.227087104701E-03  0.241994129712E-03  0.257878642839E-03  0.274804632720E-03
  0.292840266049E-03  0.312058159295E-03  0.332535667973E-03  0.354355194606E-03  0.377604516566E-03
  0.402377135067E-03  0.428772646652E-03  0.456897138622E-03  0.486863609919E-03  0.518792419090E-03
  0.552811761047E-03  0.589058174456E-03  0.627677081700E-03  0.668823363458E-03  0.712661970120E-03
  0.759368572339E-03  0.809130253194E-03  0.862146244595E-03  0.918628710691E-03  0.978803581250E-03
  0.104291143813E-02  0.111120845818E-02  0.118396741606E-02  0.126147875073E-02  0.134405169963E-02
  0.143201550465E-02  0.152572069436E-02  0.162554044736E-02  0.173187204148E-02  0.184513839442E-02
  0.196578970116E-02  0.209430517437E-02  0.223119489376E-02  0.237700177136E-02  0.253230363951E-02
  0.269771546915E-02  0.287389172619E-02  0.306152887435E-02  0.326136803319E-02  0.347419780067E-02
  0.370085725002E-02  0.394223911128E-02  0.419929314838E-02  0.447302974344E-02  0.476452370021E-02
  0.507491827965E-02  0.540542948109E-02  0.575735058314E-02  0.613205695927E-02  0.653101118400E-02
  0.695576844597E-02  0.740798228542E-02  0.788941067447E-02  0.840192245898E-02  0.894750418256E-02
  0.952826731345E-02  0.101464558965E-01  0.108044546533E-01  0.115047975547E-01  0.122501768908E-01
  0.130434528649E-01  0.138876637387E-01  0.147860365579E-01  0.157419984872E-01  0.167591887861E-01
  0.178414714578E-01  0.189929486043E-01  0.202179745220E-01  0.215211705737E-01  0.229074408741E-01
  0.243819888259E-01  0.259503345458E-01  0.276183332207E-01  0.293921944344E-01  0.312785025068E-01
  0.332842378875E-01  0.354167996476E-01  0.376840291125E-01  0.400942346798E-01  0.426562178653E-01
  0.453793006221E-01  0.482733539747E-01  0.513488280109E-01  0.546167832735E-01  0.580889235904E-01
  0.617776303826E-01  0.656959984848E-01  0.698578735103E-01  0.742778907919E-01  0.789715159213E-01
  0.839550869070E-01  0.892458579663E-01  0.948620449576E-01  0.100822872451E+00  0.107148622433E+00
  0.113860684618E+00  0.120981608341E+00  0.128535155992E+00  0.136546357920E+00  0.145041568750E+00
  0.154048525004E+00  0.163596403929E+00  0.173715883383E+00  0.184439202634E+00  0.195800223874E+00
  0.207834494239E+00  0.220579308091E+00  0.234073769266E+00  0.248358852979E+00  0.263477467013E+00
  0.279474511785E+00  0.296396938838E+00  0.314293807225E+00  0.333216337246E+00  0.353217960872E+00
  0.374354368198E+00  0.396683549118E+00  0.420265829413E+00  0.445163900312E+00  0.471442840532E+00
  0.499170129699E+00  0.528415651965E+00  0.559251688555E+00  0.591752897840E+00  0.625996281479E+00
  0.662061135018E+00  0.700028981274E+00  0.739983484679E+00  0.782010344676E+00  0.826197166154E+00
  0.872633304771E+00  0.921409684959E+00  0.972618588259E+00  0.102635340958E+01  0.108270837889E+01
  0.114177824574E+01  0.120365792406E+01  0.126844209452E+01  0.133622476183E+01  0.140709876432E+01
  0.148115523326E+01  0.155848299924E+01  0.163916794347E+01  0.172329229158E+01  0.181093384795E+01
  0.190216516900E+01  0.199705267384E+01  0.209565569157E+01  0.219802544452E+01  0.230420396782E+01
  0.241422296583E+01  0.252810260729E+01  0.264585026129E+01  0.276745917787E+01  0.289290711751E+01
  0.302215493538E+01  0.315514512751E+01  0.329180034737E+01  0.343202190310E+01  0.357568824721E+01
  0.372265347264E+01  0.387274583052E+01  0.402576628761E+01  0.418148714296E+01  0.433965072578E+01
  0.449996819862E+01  0.466211849196E+01  0.482574739879E+01  0.499046685930E+01  0.515585446819E+01
  0.532145323836E+01  0.548677165659E+01  0.565128406738E+01  0.581443142247E+01  0.597562243305E+01
  0.613423516183E+01  0.628961909081E+01  0.644109769862E+01  0.658797157914E+01  0.672952212860E+01
  0.686501582480E+01  0.699370911495E+01  0.711485392305E+01  0.722770377836E+01  0.733152055754E+01
  0.742558182252E+01  0.750918872333E+01  0.758167442284E+01  0.764241298536E+01  0.769082865591E+01
  0.772640544122E+01  0.774869688636E+01  0.775733592450E+01  0.775204466016E+01  0.773264393045E+01
  0.769906247305E+01  0.765134551631E+01  0.758966259476E+01  0.751431438450E+01  0.742573834695E+01
  0.732451296748E+01  0.721136037847E+01  0.708714716335E+01  0.695288315268E+01  0.680971804181E+01
  0.665893568641E+01  0.650194596463E+01  0.634027413354E+01  0.617554765366E+01  0.600948050607E+01
  0.584385508362E+01  0.568050179733E+01  0.552127660186E+01  0.536803670612E+01  0.522261479435E+01
  0.508679214218E+01  0.496227104247E+01  0.485064700592E+01  0.475338119660E+01  0.467177356550E+01
  0.460693712309E+01  0.455977377114E+01  0.453095210752E+01  0.452088764486E+01  0.452972594912E+01
  0.455732929728E+01  0.460326754472E+01  0.466681393988E+01  0.474694657275E+01  0.484235594145E+01
  0.495145875684E+01  0.507241766295E+01  0.520316620179E+01  0.534143822662E+01  0.548480105419E+01
  0.563069180580E+01  0.577645647732E+01  0.591939125708E+01  0.605678550660E+01  0.618596568330E+01
  0.630433938118E+01  0.640943858523E+01  0.649896122413E+01  0.657081011606E+01  0.662312846253E+01
  0.665433112800E+01  0.666313103800E+01  0.664856014756E+01  0.660998455147E+01  0.654711344913E+01
  0.646000179196E+01  0.634904660631E+01  0.621497708635E+01  0.605883871822E+01  0.588197178461E+01
  0.568598474624E+01  0.547272307168E+01  0.524423419720E+01  0.500272935416E+01  0.475054307135E+01
  0.449009118863E+01  0.422382824842E+01  0.395420513056E+01  0.368362779209E+01  0.341441794505E+01
  0.314877648678E+01  0.288875040780E+01  0.263620391845E+01  0.239279439593E+01  0.215995370602E+01
  0.193887532594E+01  0.173050754479E+01  0.153555282574E+01  0.135447318618E+01  0.118750119706E+01
  0.103465596587E+01  0.895763250860E+00  0.770478685175E+00  0.658312926615E+00  0.558657330545E+00
  0.470808456630E+00  0.393989597219E+00  0.327368222984E+00  0.270070481638E+00  0.221196826319E+00
  0.179843038209E+00  0.145125901264E+00  0.116206985076E+00  0.923083845211E-01  0.727197310953E-01
  0.567996025160E-01  0.439743758461E-01  0.337360022855E-01  0.256391044715E-01  0.192974438926E-01
  0.143798010507E-01  0.106053812806E-01  0.773890770412E-02  0.558557631111E-02  0.398603740314E-02
  0.281154393123E-02  0.195937834686E-02  0.134863979842E-02  0.916445140983E-03  0.614571607204E-03
  0.406546883394E-03  0.265174230627E-03  0.170466362099E-03  0.107951989304E-03  0.673129819846E-04
  0.413074774049E-04  0.249344299794E-04  0.147973590028E-04  0.862878698542E-05  0.494147196547E-05
  0.277752154570E-05  0.153143743619E-05  0.827790091211E-06  0.438379611352E-06  0.227305839049E-06
  0.115322007881E-06  0.572079016965E-07  0.277288547362E-07  0.131225504078E-07  0.605872464811E-08
  0.272693354101E-08  0.119547105599E-08
 kinetic energy-density
  0.398942367059E+01  0.403045480772E+01  0.407303791372E+01  0.411723176703E+01  0.416309583241E+01
  0.421069638643E+01  0.426010051010E+01  0.431138101692E+01  0.436461301383E+01  0.441988065312E+01
  0.447726572918E+01  0.453686379313E+01  0.459876458369E+01  0.466307303172E+01  0.472989517662E+01
  0.479934189429E+01  0.487153250682E+01  0.494659244866E+01  0.502465236281E+01  0.510585136026E+01
  0.519033557223E+01  0.527825881186E+01  0.536978247937E+01  0.546507737420E+01  0.556432302141E+01
  0.566770818060E+01  0.577543175142E+01  0.588770320143E+01  0.600474296966E+01  0.612678327210E+01
  0.625406867058E+01  0.638685678428E+01  0.652541904106E+01  0.667004147382E+01  0.682102554534E+01
  0.697868907869E+01  0.714336720157E+01  0.731541331652E+01  0.749520030484E+01  0.768312150448E+01
  0.787959213447E+01  0.808505018593E+01  0.829995869210E+01  0.852480561975E+01  0.876010774609E+01
  0.900640972716E+01  0.926428719412E+01  0.953434996200E+01  0.981723974726E+01  0.101136379338E+02
  0.104242630900E+02  0.107498755211E+02  0.110912801328E+02  0.114493273105E+02  0.118249173723E+02
  0.122190026304E+02  0.126325912473E+02  0.130667495928E+02  0.135226069517E+02  0.140013594865E+02
  0.145042721289E+02  0.150326853529E+02  0.155880186671E+02  0.161717747825E+02  0.167855463440E+02
  0.174310192786E+02  0.181099808055E+02  0.188243234367E+02  0.195760528064E+02  0.203672937275E+02
  0.212002984896E+02  0.220774531891E+02  0.230012869651E+02  0.239744800428E+02  0.249998735032E+02
  0.260804785011E+02  0.272194864747E+02  0.284202816701E+02  0.296864491747E+02  0.310217912877E+02
  0.324303373909E+02  0.339163609623E+02  0.354843904184E+02  0.371392257741E+02  0.388859582105E+02
  0.407299817623E+02  0.426770156294E+02  0.447331232521E+02  0.469047309196E+02  0.491986506560E+02
  0.516221022881E+02  0.541827392441E+02  0.568886725146E+02  0.597484977651E+02  0.627713243361E+02
  0.659668056347E+02  0.693451702417E+02  0.729172545615E+02  0.766945407778E+02  0.806891905713E+02
  0.849140869920E+02  0.893828753693E+02  0.941100052308E+02  0.991107776333E+02  0.104401392773E+03
  0.109999000843E+03  0.115921754297E+03  0.122188865261E+03  0.128820662732E+03  0.135838654560E+03
  0.143265592568E+03  0.151125539115E+03  0.159443938797E+03  0.168247691384E+03  0.177565230719E+03
  0.187426603866E+03  0.197863555799E+03  0.208909619369E+03  0.220600205640E+03  0.232972695089E+03
  0.246066547053E+03  0.259923390827E+03  0.274587140154E+03  0.290104102146E+03  0.306523089924E+03
  0.323895541380E+03  0.342275643067E+03  0.361720451649E+03  0.382290024561E+03  0.404047554817E+03
  0.427059497953E+03  0.451395718718E+03  0.477129624406E+03  0.504338310380E+03  0.533102701778E+03
  0.563507697355E+03  0.595642318697E+03  0.629599849436E+03  0.665477983024E+03  0.703378961113E+03
  0.743409716841E+03  0.785682006696E+03  0.830312539402E+03  0.877423104163E+03  0.927140678706E+03
  0.979597541853E+03  0.103493136266E+04  0.109328528208E+04  0.115480797901E+04  0.121965371419E+04
  0.128798235829E+04  0.135995939210E+04  0.143575588450E+04  0.151554843451E+04  0.159951908815E+04
  0.168785520569E+04  0.178074931353E+04  0.187839886356E+04  0.198100599855E+04  0.208877722312E+04
  0.220192302896E+04  0.232065745698E+04  0.244519757460E+04  0.257576290890E+04  0.271257475114E+04
  0.285585541623E+04  0.300582738462E+04  0.316271234448E+04  0.332673013949E+04  0.349809758975E+04
  0.367702720184E+04  0.386372575518E+04  0.405839274929E+04  0.426121872522E+04  0.447238344584E+04
  0.469205392233E+04  0.492038231297E+04  0.515750364675E+04  0.540353342913E+04  0.565856506769E+04
  0.592266717253E+04  0.619588070280E+04  0.647821598193E+04  0.676964957917E+04  0.707012107244E+04
  0.737952971572E+04  0.769773100608E+04  0.802453319249E+04  0.835969373337E+04  0.870291574531E+04
  0.905384445627E+04  0.941206371813E+04  0.977709260152E+04  0.101483821335E+05  0.105253122083E+05
  0.109071887477E+05  0.112932411414E+05  0.116826200603E+05  0.120743956784E+05  0.124675563975E+05
  0.128610081305E+05  0.132535742273E+05  0.136439961210E+05  0.140309347521E+05  0.144129728813E+05
  0.147886183282E+05  0.151563082436E+05  0.155144144262E+05  0.158612498172E+05  0.161950761707E+05
  0.165141128957E+05  0.168165472772E+05  0.171005457949E+05  0.173642668430E+05  0.176058745799E+05
  0.178235540136E+05  0.180155271604E+05  0.181800702256E+05  0.183155316703E+05  0.184203509968E+05
  0.184930780792E+05  0.185323928432E+05  0.185371250188E+05  0.185062737310E+05  0.184390266128E+05
  0.183347781343E+05  0.181931468037E+05  0.180139908836E+05  0.177974222659E+05  0.175438181297E+05
  0.172538300197E+05  0.169283899706E+05  0.165687133782E+05  0.161762982593E+05  0.157529206764E+05
  0.153006260818E+05  0.148217164416E+05  0.143187330736E+05  0.137944352040E+05  0.132517743832E+05
  0.126938649993E+05  0.121239512809E+05  0.115453712812E+05  0.109615185269E+05  0.103758021525E+05
  0.979160620560E+04  0.921224951089E+04  0.864094646785E+04  0.808076988607E+04  0.753461615382E+04
  0.700517280000E+04  0.649488814451E+04  0.600594266452E+04  0.554022209921E+04  0.509929315102E+04
  0.468438358361E+04  0.429636906768E+04  0.393576893598E+04  0.360275209060E+04  0.329715295099E+04
  0.301849592147E+04  0.276602583385E+04  0.253874157469E+04  0.233543071344E+04  0.215470397775E+04
  0.199502925131E+04  0.185476512779E+04  0.173219396928E+04  0.162555424189E+04  0.153307166758E+04
  0.145298868772E+04  0.138359170001E+04  0.132323556306E+04  0.127036499687E+04  0.122353252496E+04
  0.118141281831E+04  0.114281332196E+04  0.110668123652E+04  0.107210697043E+04  0.103832432979E+04
  0.100470770467E+04  0.970766658385E+03  0.936138278890E+03  0.900577724933E+03  0.863947336096E+03
  0.826204792710E+03  0.787390610265E+03  0.747615361941E+03  0.707046976553E+03  0.665898299897E+03
  0.624415246464E+03  0.582865653714E+03  0.541529033504E+03  0.500687301518E+03  0.460616554833E+03
  0.421579932376E+03  0.383821529120E+03  0.347561379197E+03  0.312991419279E+03  0.280272421597E+03
  0.249531852638E+03  0.220862630474E+03  0.194322911816E+03  0.169936543424E+03  0.147694797607E+03
  0.127558713373E+03  0.109462326374E+03  0.933165465169E+02  0.790136316310E+02  0.664322867439E+02
  0.554434403664E+02  0.459163855680E+02  0.377239815646E+02  0.307446272088E+02  0.248597465928E+02
  0.199494483758E+02  0.158916463790E+02  0.125664579532E+02  0.986223832211E+01  0.767929255299E+01
  0.593064954032E+01  0.454124632062E+01  0.344669568893E+01  0.259210989796E+01  0.193105497018E+01
  0.142459973354E+01  0.104042517307E+01  0.751981548776E+00  0.537694880722E+00  0.380229994465E+00
  0.265817243415E+00  0.183647816076E+00  0.125339644663E+00  0.844733683061E-01  0.561956104533E-01
  0.368852203749E-01  0.238769720632E-01  0.152365107464E-01  0.958002502535E-02  0.593213447982E-02
  0.361576311007E-02  0.216824454496E-02  0.127850978831E-02  0.740882437731E-03  0.421696343304E-03
  0.235616332689E-03  0.129154450874E-03  0.694142215682E-04  0.365554351146E-04  0.188512915843E-04
  0.951323499972E-05  0.469478612769E-05  0.226410072610E-05  0.106622400680E-05  0.489939263366E-06
  0.219499048164E-06  0.957992012151E-07
 mkinetic energy-density pseudized
  0.288059390814E-05  0.307097926817E-05  0.327394765317E-05  0.349033070541E-05  0.372101503241E-05
  0.396694583969E-05  0.422913080368E-05  0.450864420055E-05  0.480663130794E-05  0.512431309764E-05
  0.546299123841E-05  0.582405342939E-05  0.620897908607E-05  0.661934540206E-05  0.705683381147E-05
  0.752323687842E-05  0.802046564185E-05  0.855055744585E-05  0.911568428745E-05  0.971816171615E-05
  0.103604583216E-04  0.110452058486E-04  0.117752099800E-04  0.125534618332E-04  0.133831502153E-04
  0.142676746897E-04  0.152106595048E-04  0.162159684442E-04  0.172877206583E-04  0.184303075418E-04
  0.196484107272E-04  0.209470212673E-04  0.223314600853E-04  0.238073997769E-04  0.253808878531E-04
  0.270583715194E-04  0.288467240921E-04  0.307532731614E-04  0.327858306155E-04  0.349527246483E-04
  0.372628338840E-04  0.397256237560E-04  0.423511852904E-04  0.451502764530E-04  0.481343662290E-04
  0.513156816155E-04  0.547072577205E-04  0.583229911731E-04  0.621776970628E-04  0.662871696431E-04
  0.706682470462E-04  0.753388802758E-04  0.803182067592E-04  0.856266287601E-04  0.912858969753E-04
  0.973191996549E-04  0.103751257614E-03  0.110608425522E-03  0.117918799890E-03  0.125712334191E-03
  0.134020961589E-03  0.142878725785E-03  0.152321920504E-03  0.162389238205E-03  0.173121928616E-03
  0.184563967752E-03  0.196762238100E-03  0.209766720712E-03  0.223630699998E-03  0.238410982048E-03
  0.254168127390E-03  0.270966699125E-03  0.288875527464E-03  0.307967991755E-03  0.328322321134E-03
  0.350021915064E-03  0.373155685045E-03  0.397818418919E-03  0.424111169240E-03  0.452141667324E-03
  0.482024764656E-03  0.513882903470E-03  0.547846618436E-03  0.584055071496E-03  0.622656622051E-03
  0.663809434833E-03  0.707682127947E-03  0.754454463748E-03  0.804318085367E-03  0.857477301928E-03
  0.914149925645E-03  0.974568164254E-03  0.103897957241E-02  0.110764806598E-02  0.118085500335E-02
  0.125890033820E-02  0.134210384846E-02  0.143080644649E-02  0.152537157585E-02  0.162618670038E-02
  0.173366489162E-02  0.184824652128E-02  0.197040106537E-02  0.210062902776E-02  0.223946399066E-02
  0.238747480074E-02  0.254526789966E-02  0.271348980861E-02  0.289282977705E-02  0.308402260644E-02
  0.328785166062E-02  0.350515207507E-02  0.373681417824E-02  0.398378713896E-02  0.424708285488E-02
  0.452778009777E-02  0.482702893280E-02  0.514605542978E-02  0.548616668564E-02  0.584875617884E-02
  0.623530947743E-02  0.664741032432E-02  0.708674712452E-02  0.755511986098E-02  0.805444746731E-02
  0.858677568747E-02  0.915428545480E-02  0.975930182436E-02  0.104043034954E-01  0.110919329629E-01
  0.118250073390E-01  0.126065298902E-01  0.134397023355E-01  0.143279379572E-01  0.152748755770E-01
  0.162843944560E-01  0.173606301772E-01  0.185079915773E-01  0.197311787965E-01  0.210352025191E-01
  0.224254044850E-01  0.239074793540E-01  0.254874980144E-01  0.271719324281E-01  0.289676821166E-01
  0.308821023934E-01  0.329230344592E-01  0.350988374822E-01  0.374184227942E-01  0.398912903414E-01
  0.425275675387E-01  0.453380506852E-01  0.483342491096E-01  0.515284322242E-01  0.549336796795E-01
  0.585639348225E-01  0.624340616753E-01  0.665599056657E-01  0.709583583546E-01  0.756474264236E-01
  0.806463052008E-01  0.859754570220E-01  0.916566947444E-01  0.977132707483E-01  0.104169971786E+00
  0.111053220062E+00  0.118391180943E+00  0.126213877741E+00  0.134553314023E+00  0.143443603934E+00
  0.152921111060E+00  0.163024596388E+00  0.173795375937E+00  0.185277488706E+00  0.197517875589E+00
  0.210566569978E+00  0.224476900792E+00  0.239305708749E+00  0.255113576717E+00  0.271965075048E+00
  0.289929022858E+00  0.309078766271E+00  0.329492474695E+00  0.351253456283E+00  0.374450493796E+00
  0.399178202143E+00  0.425537408970E+00  0.453635559740E+00  0.483587148830E+00  0.515514178265E+00
  0.549546645790E+00  0.585823064105E+00  0.624491013149E+00  0.665707727467E+00  0.709640720769E+00
  0.756468449926E+00  0.806381020764E+00  0.859580938116E+00  0.916283902760E+00  0.976719657951E+00
  0.104113288842E+01  0.110978417485E+01  0.118295100691E+01  0.126092885817E+01  0.134403232625E+01
  0.143259634177E+01  0.152697744969E+01  0.162755516692E+01  0.173473341997E+01  0.184894206674E+01
  0.197063850646E+01  0.210030938201E+01  0.223847237869E+01  0.238567812386E+01  0.254251219154E+01
  0.270959721610E+01  0.288759511938E+01  0.307720945479E+01  0.327918787252E+01  0.349432470896E+01
  0.372346370369E+01  0.396750084638E+01  0.422738735576E+01  0.450413279190E+01  0.479880830208E+01
  0.511254999967E+01  0.544656247394E+01  0.580212242731E+01  0.618058243471E+01  0.658337481765E+01
  0.701201562296E+01  0.746810869361E+01  0.795334981519E+01  0.846953091831E+01  0.901854431226E+01
  0.960238692041E+01  0.102231644819E+02  0.108830956774E+02  0.115845161293E+02  0.123298822179E+02
  0.131217746445E+02  0.139629016638E+02  0.148561018907E+02  0.158043465792E+02  0.168107412473E+02
  0.178785265119E+02  0.190110779716E+02  0.202119049571E+02  0.214846479442E+02  0.228330743946E+02
  0.242610727644E+02  0.257726443840E+02  0.273718928813E+02  0.290630107777E+02  0.308502628503E+02
  0.327379658046E+02  0.347304637595E+02  0.368320989948E+02  0.390471773620E+02  0.413799277073E+02
  0.438344546019E+02  0.464146836278E+02  0.491242984152E+02  0.519666685877E+02  0.549447677358E+02
  0.580610805143E+02  0.613174979540E+02  0.647152000859E+02  0.682545250206E+02  0.719348236938E+02
  0.757542996085E+02  0.797098330728E+02  0.837967896674E+02  0.880088129897E+02  0.923376021318E+02
  0.967726748674E+02  0.101301118177E+03  0.105907328543E+03  0.110572745418E+03  0.115275582462E+03
  0.119990562495E+03  0.124688663787E+03  0.129336887134E+03  0.133898055339E+03  0.138330659080E+03
  0.142588765777E+03  0.146622010882E+03  0.150375693942E+03  0.153791004748E+03  0.156805407659E+03
  0.159353214632E+03  0.161366379265E+03  0.162775544847E+03  0.163511378635E+03  0.163506221538E+03
  0.162696076589E+03  0.161022949886E+03  0.158437543338E+03  0.154902278247E+03  0.150394601448E+03
  0.144910490279E+03  0.138468027962E+03  0.131110866533E+03  0.122911330036E+03  0.113972837246E+03
  0.104431242866E+03  0.944546130431E+02  0.842408718837E+02  0.740126902668E+02  0.640089505833E+02
  0.544721295880E+02  0.456310198888E+02  0.376783872836E+02  0.307434688357E+02  0.248597465928E+02
  0.199494483758E+02  0.158916463790E+02  0.125664579532E+02  0.986223832211E+01  0.767929255299E+01
  0.593064954032E+01  0.454124632062E+01  0.344669568893E+01  0.259210989796E+01  0.193105497018E+01
  0.142459973354E+01  0.104042517307E+01  0.751981548776E+00  0.537694880722E+00  0.380229994465E+00
  0.265817243415E+00  0.183647816076E+00  0.125339644663E+00  0.844733683061E-01  0.561956104533E-01
  0.368852203749E-01  0.238769720632E-01  0.152365107464E-01  0.958002502535E-02  0.593213447982E-02
  0.361576311007E-02  0.216824454496E-02  0.127850978831E-02  0.740882437731E-03  0.421696343304E-03
  0.235616332689E-03  0.129154450874E-03  0.694142215682E-04  0.365554351146E-04  0.188512915843E-04
  0.951323499972E-05  0.469478612769E-05  0.226410072610E-05  0.106622400680E-05  0.489939263366E-06
  0.219499048164E-06  0.957992012151E-07
 local pseudopotential core
 -0.147996471988E+03 -0.147995234480E+03 -0.147994035943E+03 -0.147992875150E+03 -0.147991750913E+03
 -0.147990662079E+03 -0.147989607535E+03 -0.147988586199E+03 -0.147987597026E+03 -0.147986639003E+03
 -0.147985711148E+03 -0.147984812511E+03 -0.147983942172E+03 -0.147983099240E+03 -0.147982282850E+03
 -0.147981492168E+03 -0.147980726382E+03 -0.147979984709E+03 -0.147979266389E+03 -0.147978570686E+03
 -0.147977896887E+03 -0.147977244303E+03 -0.147976612265E+03 -0.147976000125E+03 -0.147975407256E+03
 -0.147974833050E+03 -0.147974276921E+03 -0.147973738297E+03 -0.147973216626E+03 -0.147972711375E+03
 -0.147972222026E+03 -0.147971748077E+03 -0.147971289041E+03 -0.147970844450E+03 -0.147970413847E+03
 -0.147969996790E+03 -0.147969592852E+03 -0.147969201619E+03 -0.147968822690E+03 -0.147968455676E+03
 -0.147968100200E+03 -0.147967755898E+03 -0.147967422416E+03 -0.147967099413E+03 -0.147966786556E+03
 -0.147966483524E+03 -0.147966190007E+03 -0.147965905702E+03 -0.147965630317E+03 -0.147965363569E+03
 -0.147965105184E+03 -0.147964854896E+03 -0.147964612447E+03 -0.147964377588E+03 -0.147964150076E+03
 -0.147963929677E+03 -0.147963716163E+03 -0.147963509314E+03 -0.147963308915E+03 -0.147963114760E+03
 -0.147962926648E+03 -0.147962744383E+03 -0.147962567776E+03 -0.147962396644E+03 -0.147962230808E+03
 -0.147962070096E+03 -0.147961914339E+03 -0.147961763374E+03 -0.147961617044E+03 -0.147961475193E+03
 -0.147961337673E+03 -0.147961204338E+03 -0.147961075047E+03 -0.147960949662E+03 -0.147960828049E+03
 -0.147960710078E+03 -0.147960595621E+03 -0.147960484554E+03 -0.147960376757E+03 -0.147960272112E+03
 -0.147960170503E+03 -0.147960071817E+03 -0.147959975944E+03 -0.147959882776E+03 -0.147959792208E+03
 -0.147959704134E+03 -0.147959618453E+03 -0.147959535064E+03 -0.147959453869E+03 -0.147959374769E+03
 -0.147959297668E+03 -0.147959222471E+03 -0.147959149082E+03 -0.147959077409E+03 -0.147959007357E+03
 -0.147958938834E+03 -0.147958871747E+03 -0.147958806002E+03 -0.147958741506E+03 -0.147958678166E+03
 -0.147958615888E+03 -0.147958554577E+03 -0.147958494135E+03 -0.147958434466E+03 -0.147958375472E+03
 -0.147958317049E+03 -0.147958259097E+03 -0.147958201509E+03 -0.147958144178E+03 -0.147958086992E+03
 -0.147958029837E+03 -0.147957972596E+03 -0.147957915145E+03 -0.147957857360E+03 -0.147957799108E+03
 -0.147957740254E+03 -0.147957680654E+03 -0.147957620162E+03 -0.147957558622E+03 -0.147957495871E+03
 -0.147957431740E+03 -0.147957366051E+03 -0.147957298615E+03 -0.147957229237E+03 -0.147957157708E+03
 -0.147957083809E+03 -0.147957007310E+03 -0.147956927967E+03 -0.147956845522E+03 -0.147956759702E+03
 -0.147956670220E+03 -0.147956576770E+03 -0.147956479029E+03 -0.147956376653E+03 -0.147956269278E+03
 -0.147956156520E+03 -0.147956037967E+03 -0.147955913185E+03 -0.147955781711E+03 -0.147955643054E+03
 -0.147955496692E+03 -0.147955342071E+03 -0.147955178598E+03 -0.147955005647E+03 -0.147954822548E+03
 -0.147954628592E+03 -0.147954423021E+03 -0.147954205029E+03 -0.147953973760E+03 -0.147953728299E+03
 -0.147953467675E+03 -0.147953190852E+03 -0.147952896727E+03 -0.147952584125E+03 -0.147952251795E+03
 -0.147951898404E+03 -0.147951522530E+03 -0.147951122661E+03 -0.147950697184E+03 -0.147950244381E+03
 -0.147949762421E+03 -0.147949249352E+03 -0.147948703095E+03 -0.147948121434E+03 -0.147947502007E+03
 -0.147946842297E+03 -0.147946139620E+03 -0.147945391118E+03 -0.147944593741E+03 -0.147943744241E+03
 -0.147942839155E+03 -0.147941874792E+03 -0.147940847217E+03 -0.147939752235E+03 -0.147938585377E+03
 -0.147937341876E+03 -0.147936016652E+03 -0.147934604289E+03 -0.147933099015E+03 -0.147931494674E+03
 -0.147929784708E+03 -0.147927962122E+03 -0.147926019462E+03 -0.147923948779E+03 -0.147921741602E+03
 -0.147919388898E+03 -0.147916881040E+03 -0.147914207763E+03 -0.147911358125E+03 -0.147908320462E+03
 -0.147905082337E+03 -0.147901630494E+03 -0.147897950800E+03 -0.147894028191E+03 -0.147889846603E+03
 -0.147885388916E+03 -0.147880636876E+03 -0.147875571024E+03 -0.147870170615E+03 -0.147864413536E+03
 -0.147858276210E+03 -0.147851733504E+03 -0.147844758626E+03 -0.147837323013E+03 -0.147829396215E+03
 -0.147820945773E+03 -0.147811937081E+03 -0.147802333249E+03 -0.147792094951E+03 -0.147781180264E+03
 -0.147769544495E+03 -0.147757140001E+03 -0.147743915993E+03 -0.147729818327E+03 -0.147714789286E+03
 -0.147698767341E+03 -0.147681686903E+03 -0.147663478052E+03 -0.147644066254E+03 -0.147623372054E+03
 -0.147601310756E+03 -0.147577792073E+03 -0.147552719763E+03 -0.147525991234E+03 -0.147497497128E+03
 -0.147467120875E+03 -0.147434738215E+03 -0.147400216701E+03 -0.147363415151E+03 -0.147324183082E+03
 -0.147282360094E+03 -0.147237775222E+03 -0.147190246242E+03 -0.147139578933E+03 -0.147085566291E+03
 -0.147027987692E+03 -0.146966608002E+03 -0.146901176629E+03 -0.146831426515E+03 -0.146757073056E+03
 -0.146677812971E+03 -0.146593323075E+03 -0.146503258995E+03 -0.146407253795E+03 -0.146304916514E+03
 -0.146195830614E+03 -0.146079552336E+03 -0.145955608949E+03 -0.145823496893E+03 -0.145682679813E+03
 -0.145532586466E+03 -0.145372608516E+03 -0.145202098192E+03 -0.145020365809E+03 -0.144826677156E+03
 -0.144620250732E+03 -0.144400254836E+03 -0.144165804501E+03 -0.143915958272E+03 -0.143649714828E+03
 -0.143366009441E+03 -0.143063710283E+03 -0.142741614578E+03 -0.142398444613E+03 -0.142032843609E+03
 -0.141643371482E+03 -0.141228500511E+03 -0.140786610930E+03 -0.140315986508E+03 -0.139814810143E+03
 -0.139281159546E+03 -0.138713003085E+03 -0.138108195902E+03 -0.137464476396E+03 -0.136779463258E+03
 -0.136050653201E+03 -0.135275419636E+03 -0.134451012548E+03 -0.133574559891E+03 -0.132643070903E+03
 -0.131653441787E+03 -0.130602464326E+03 -0.129486838068E+03 -0.128303186848E+03 -0.127048080545E+03
 -0.125718063088E+03 -0.124309687877E+03 -0.122819561921E+03 -0.121244400087E+03 -0.119581090923E+03
 -0.117826775427E+03 -0.115978939910E+03 -0.114035523456E+03 -0.111995039394E+03 -0.109856708175E+03
 -0.107620595812E+03 -0.105287747070E+03 -0.102860295399E+03 -0.100341522379E+03 -0.977358296244E+02
 -0.950485803413E+02 -0.922857761473E+02 -0.894535747292E+02 -0.865577476911E+02 -0.836033400993E+02
 -0.805950042686E+02 -0.775386567666E+02 -0.744450992378E+02 -0.713358642815E+02 -0.682504833807E+02
 -0.652515586311E+02 -0.624167241247E+02 -0.597948972061E+02 -0.573166620780E+02 -0.547630086878E+02
 -0.521600218598E+02 -0.496804123747E+02 -0.474755660690E+02 -0.456585812584E+02 -0.442809832401E+02
 -0.433517448350E+02 -0.428753161916E+02 -0.415319519892E+02 -0.402204226943E+02 -0.389501119555E+02
 -0.377208054450E+02 -0.365309561015E+02 -0.353791285518E+02 -0.342639768501E+02 -0.331842316583E+02
 -0.321386984060E+02 -0.311262380402E+02 -0.301457646320E+02 -0.291962386864E+02 -0.282766636314E+02
 -0.273860810333E+02 -0.265235665015E+02 -0.256882289083E+02 -0.248792074864E+02 -0.240956702412E+02
 -0.233368125550E+02 -0.226018557733E+02 -0.218900464223E+02 -0.212006549617E+02 -0.205329750855E+02
 -0.198863228443E+02 -0.192600358940E+02 -0.186534728031E+02 -0.180660123672E+02 -0.174970529544E+02
 -0.169460118999E+02 -0.164123249022E+02 -0.158954455208E+02 -0.153948441581E+02 -0.149100084335E+02
 -0.144404417654E+02 -0.139856632986E+02
 pspotential valence only
 -0.771646764392E+01 -0.771523015588E+01 -0.771403164090E+01 -0.771287087129E+01 -0.771174665877E+01
 -0.771065785174E+01 -0.770960333541E+01 -0.770858202966E+01 -0.770759288872E+01 -0.770663489962E+01
 -0.770570708119E+01 -0.770480848317E+01 -0.770393818562E+01 -0.770309529717E+01 -0.770227895478E+01
 -0.770148832231E+01 -0.770072259008E+01 -0.769998097390E+01 -0.769926271471E+01 -0.769856707645E+01
 -0.769789334690E+01 -0.769724083626E+01 -0.769660887617E+01 -0.769599681970E+01 -0.769540403985E+01
 -0.769482992971E+01 -0.769427390131E+01 -0.769373538543E+01 -0.769321383043E+01 -0.769270870224E+01
 -0.769221948370E+01 -0.769174567386E+01 -0.769128678748E+01 -0.769084235472E+01 -0.769041192041E+01
 -0.768999504398E+01 -0.768959129840E+01 -0.768920027040E+01 -0.768882155962E+01 -0.768845477819E+01
 -0.768809955055E+01 -0.768775551316E+01 -0.768742231375E+01 -0.768709961108E+01 -0.768678707492E+01
 -0.768648438518E+01 -0.768619123215E+01 -0.768590731570E+01 -0.768563234516E+01 -0.768536603918E+01
 -0.768510812511E+01 -0.768485833905E+01 -0.768461642530E+01 -0.768438213643E+01 -0.768415523261E+01
 -0.768393548173E+01 -0.768372265902E+01 -0.768351654673E+01 -0.768331693402E+01 -0.768312361684E+01
 -0.768293639746E+01 -0.768275508450E+01 -0.768257949259E+01 -0.768240944232E+01 -0.768224475988E+01
 -0.768208527705E+01 -0.768193083101E+01 -0.768178126400E+01 -0.768163642336E+01 -0.768149616134E+01
 -0.768136033483E+01 -0.768122880536E+01 -0.768110143886E+01 -0.768097810565E+01 -0.768085868009E+01
 -0.768074304072E+01 -0.768063106995E+01 -0.768052265398E+01 -0.768041768276E+01 -0.768031604982E+01
 -0.768021765215E+01 -0.768012239014E+01 -0.768003016749E+01 -0.767994089103E+01 -0.767985447077E+01
 -0.767977081970E+01 -0.767968985373E+01 -0.767961149167E+01 -0.767953565507E+01 -0.767946226821E+01
 -0.767939125799E+01 -0.767932255388E+01 -0.767925608787E+01 -0.767919179440E+01 -0.767912961027E+01
 -0.767906947464E+01 -0.767901132897E+01 -0.767895511692E+01 -0.767890078437E+01 -0.767884827935E+01
 -0.767879755198E+01 -0.767874855449E+01 -0.767870124116E+01 -0.767865556825E+01 -0.767861149404E+01
 -0.767856897878E+01 -0.767852798467E+01 -0.767848847583E+01 -0.767845041834E+01 -0.767841378017E+01
 -0.767837853122E+01 -0.767834464328E+01 -0.767831209008E+01 -0.767828084726E+01 -0.767825089240E+01
 -0.767822220504E+01 -0.767819476666E+01 -0.767816856078E+01 -0.767814357293E+01 -0.767811979069E+01
 -0.767809720378E+01 -0.767807580406E+01 -0.767805558556E+01 -0.767803654464E+01 -0.767801867995E+01
 -0.767800199253E+01 -0.767798648595E+01 -0.767797216631E+01 -0.767795904244E+01 -0.767794712586E+01
 -0.767793643105E+01 -0.767792697549E+01 -0.767791877975E+01 -0.767791186778E+01 -0.767790626691E+01
 -0.767790200813E+01 -0.767789912621E+01 -0.767789765992E+01 -0.767789765224E+01 -0.767789915060E+01
 -0.767790220706E+01 -0.767790687866E+01 -0.767791322764E+01 -0.767792132176E+01 -0.767793123462E+01
 -0.767794304597E+01 -0.767795684215E+01 -0.767797271639E+01 -0.767799076931E+01 -0.767801110933E+01
 -0.767803385314E+01 -0.767805912626E+01 -0.767808706351E+01 -0.767811780968E+01 -0.767815152009E+01
 -0.767818836127E+01 -0.767822851171E+01 -0.767827216258E+01 -0.767831951854E+01 -0.767837079861E+01
 -0.767842623712E+01 -0.767848608465E+01 -0.767855060911E+01 -0.767862009686E+01 -0.767869485390E+01
 -0.767877520711E+01 -0.767886150569E+01 -0.767895412253E+01 -0.767905345579E+01 -0.767915993058E+01
 -0.767927400064E+01 -0.767939615029E+01 -0.767952689642E+01 -0.767966679056E+01 -0.767981642125E+01
 -0.767997641638E+01 -0.768014744582E+01 -0.768033022416E+01 -0.768052551366E+01 -0.768073412738E+01
 -0.768095693251E+01 -0.768119485394E+01 -0.768144887804E+01 -0.768172005673E+01 -0.768200951179E+01
 -0.768231843943E+01 -0.768264811522E+01 -0.768299989931E+01 -0.768337524200E+01 -0.768377568965E+01
 -0.768420289105E+01 -0.768465860413E+01 -0.768514470318E+01 -0.768566318647E+01 -0.768621618444E+01
 -0.768680596842E+01 -0.768743495988E+01 -0.768810574031E+01 -0.768882106177E+01 -0.768958385811E+01
 -0.769039725693E+01 -0.769126459233E+01 -0.769218941850E+01 -0.769317552417E+01 -0.769422694806E+01
 -0.769534799530E+01 -0.769654325489E+01 -0.769781761844E+01 -0.769917629997E+01 -0.770062485707E+01
 -0.770216921349E+01 -0.770381568310E+01 -0.770557099553E+01 -0.770744232331E+01 -0.770943731100E+01
 -0.771156410599E+01 -0.771383139141E+01 -0.771624842119E+01 -0.771882505730E+01 -0.772157180947E+01
 -0.772449987746E+01 -0.772762119599E+01 -0.773094848263E+01 -0.773449528877E+01 -0.773827605376E+01
 -0.774230616262E+01 -0.774660200737E+01 -0.775118105230E+01 -0.775606190338E+01 -0.776126438203E+01
 -0.776680960366E+01 -0.777272006107E+01 -0.777901971318E+01 -0.778573407924E+01 -0.779289033911E+01
 -0.780051743961E+01 -0.780864620774E+01 -0.781730947069E+01 -0.782654218356E+01 -0.783638156482E+01
 -0.784686724023E+01 -0.785804139560E+01 -0.786994893903E+01 -0.788263767310E+01 -0.789615847761E+01
 -0.791056550368E+01 -0.792591637968E+01 -0.794227242989E+01 -0.795969890665E+01 -0.797826523691E+01
 -0.799804528411E+01 -0.801911762649E+01 -0.804156585287E+01 -0.806547887744E+01 -0.809095127478E+01
 -0.811808363685E+01 -0.814698295385E+01 -0.817776302103E+01 -0.821054487385E+01 -0.824545725449E+01
 -0.828263711285E+01 -0.832223014601E+01 -0.836439138065E+01 -0.840928580388E+01 -0.845708904878E+01
 -0.850798814226E+01 -0.856218232428E+01 -0.861988394909E+01 -0.868131948151E+01 -0.874673060334E+01
 -0.881637544843E+01 -0.889052998810E+01 -0.896948959305E+01 -0.905357080262E+01 -0.914311333835E+01
 -0.923848240531E+01 -0.934007133270E+01 -0.944830461400E+01 -0.956364141769E+01 -0.968657965010E+01
 -0.981766066527E+01 -0.995747472908E+01 -0.101066673581E+02 -0.102659466648E+02 -0.104360918495E+02
 -0.106179629760E+02 -0.108125121579E+02 -0.110207962367E+02 -0.112439909517E+02 -0.114834064421E+02
 -0.117405036388E+02 -0.120169106268E+02 -0.123144372507E+02 -0.126350849314E+02 -0.129810465661E+02
 -0.133546881438E+02 -0.137584988846E+02 -0.141949899563E+02 -0.146665133281E+02 -0.151749637000E+02
 -0.157213224746E+02 -0.163050136587E+02 -0.169230848971E+02 -0.175693248877E+02 -0.182335957800E+02
 -0.189018761391E+02 -0.195576927832E+02 -0.201856173313E+02 -0.207771283205E+02 -0.213380768521E+02
 -0.218941748861E+02 -0.224836190100E+02 -0.231142581775E+02 -0.236751289616E+02 -0.239065283511E+02
 -0.237961300327E+02 -0.234819161902E+02 -0.230854659645E+02 -0.226959462441E+02 -0.223474118752E+02
 -0.220380384879E+02 -0.217680845976E+02 -0.215405376080E+02 -0.213042536830E+02 -0.210672643140E+02
 -0.208295349482E+02 -0.205903205185E+02 -0.203491364898E+02 -0.201055393284E+02 -0.198590980478E+02
 -0.196094198293E+02 -0.193562076713E+02 -0.190992749396E+02 -0.188385704695E+02 -0.185741501141E+02
 -0.183061461774E+02 -0.180347216729E+02 -0.177600090375E+02 -0.174820667377E+02 -0.172008399219E+02
 -0.169161398848E+02 -0.166276582202E+02 -0.163350027183E+02 -0.160377608933E+02 -0.157355776673E+02
 -0.154282350389E+02 -0.151157200177E+02 -0.147982700597E+02 -0.144763901483E+02 -0.141508412862E+02
 -0.138226048583E+02 -0.134928302215E+02 -0.131627734120E+02 -0.128337376574E+02 -0.125070120771E+02
 -0.121838282279E+02 -0.118653198830E+02
 core charge-density (pseudized)
  0.226873946847E-07  0.241868590116E-07  0.257854265314E-07  0.274896472117E-07  0.293065039231E-07
  0.312434410509E-07  0.333083949976E-07  0.355098267014E-07  0.378567563045E-07  0.403588001116E-07
  0.430262099921E-07  0.458699153860E-07  0.489015680861E-07  0.521335899801E-07  0.555792239478E-07
  0.592525881229E-07  0.631687337402E-07  0.673437068063E-07  0.717946138471E-07  0.765396919994E-07
  0.815983837363E-07  0.869914165298E-07  0.927408877806E-07  0.988703553588E-07  0.105404934131E-06
  0.112371398864E-06  0.119798293935E-06  0.127716050284E-06  0.136157110107E-06  0.145156059781E-06
  0.154749771579E-06  0.164977554749E-06  0.175881316583E-06  0.187505734124E-06  0.199898437226E-06
  0.213110203715E-06  0.227195167443E-06  0.242211040095E-06  0.258219347661E-06  0.275285682527E-06
  0.293479972234E-06  0.312876766001E-06  0.333555540180E-06  0.355601023902E-06  0.379103546244E-06
  0.404159406348E-06  0.430871267987E-06  0.459348580226E-06  0.489708025875E-06  0.522073999581E-06
  0.556579117524E-06  0.593364760797E-06  0.632581654694E-06  0.674390486295E-06  0.718962562860E-06
  0.766480513739E-06  0.817139038675E-06  0.871145705565E-06  0.928721800940E-06  0.990103236660E-06
  0.105554151654E-05  0.112530476684E-05  0.119967883489E-05  0.127896846033E-05  0.136349852368E-05
  0.145361537758E-05  0.154968826585E-05  0.165211083644E-05  0.176130275437E-05  0.187771142121E-05
  0.200181380829E-05  0.213411841095E-05  0.227516733208E-05  0.242553850331E-05  0.258584805293E-05
  0.275675283042E-05  0.293895309781E-05  0.313319539881E-05  0.334027561770E-05  0.356104224031E-05
  0.379639983051E-05  0.404731273652E-05  0.431480904212E-05  0.459998477901E-05  0.490400841761E-05
  0.522812565455E-05  0.557366451667E-05  0.594204080231E-05  0.633476388218E-05  0.675344288365E-05
  0.719979328372E-05  0.767564393771E-05  0.818294457251E-05  0.872377377498E-05  0.930034750836E-05
  0.991502819144E-05  0.105703343778E-04  0.112689510747E-04  0.120137407439E-04  0.128077550295E-04
  0.136542472610E-04  0.145566857820E-04  0.155187681606E-04  0.165444363386E-04  0.176378927811E-04
  0.188036176945E-04  0.200463873812E-04  0.213712938084E-04  0.227837654689E-04  0.242895896209E-04
  0.258949359977E-04  0.276063820835E-04  0.294309400602E-04  0.313760855334E-04  0.334497881585E-04
  0.356605442885E-04  0.380174117801E-04  0.405300470997E-04  0.432087448797E-04  0.460644800902E-04
  0.491089529954E-04  0.523546370813E-04  0.558148301487E-04  0.595037087823E-04  0.634363864187E-04
  0.676289752487E-04  0.720986522106E-04  0.768637293418E-04  0.819437287773E-04  0.873594627024E-04
  0.931331185859E-04  0.992883500425E-04  0.105850373696E-03  0.112846072441E-03  0.120304105517E-03
  0.128255025862E-03  0.136731405205E-03  0.145767967420E-03  0.155401730689E-03  0.165672159042E-03
  0.176621323902E-03  0.188294076302E-03  0.200738230450E-03  0.214004759426E-03  0.228148003778E-03
  0.243225893890E-03  0.259300187014E-03  0.276436719940E-03  0.294705678326E-03  0.314181883798E-03
  0.334945099968E-03  0.357080358633E-03  0.380678307472E-03  0.405835580661E-03  0.432655193896E-03
  0.461246965450E-03  0.491727964957E-03  0.524222991735E-03  0.558865084617E-03  0.595796065313E-03
  0.635167117531E-03  0.677139404191E-03  0.721884725211E-03  0.769586218534E-03  0.820439107212E-03
  0.874651495562E-03  0.932445217578E-03  0.994056741030E-03  0.105973813085E-02  0.112975807568E-02
  0.120440298168E-02  0.128397813795E-02  0.136880895824E-02  0.145924230382E-02  0.155564789288E-02
  0.165841980187E-02  0.176797806489E-02  0.188477037727E-02  0.200927391017E-02  0.214199724324E-02
  0.228348242286E-02  0.243430715408E-02  0.259508713464E-02  0.276647854021E-02  0.294918067036E-02
  0.314393876534E-02  0.335154700456E-02  0.357285169808E-02  0.380875468312E-02  0.406021693842E-02
  0.432826242991E-02  0.461398220194E-02  0.491853872914E-02  0.524317054481E-02  0.558919716257E-02
  0.595802430901E-02  0.635114948587E-02  0.677016788138E-02  0.721677865124E-02  0.769279159099E-02
  0.820013422213E-02  0.874085931599E-02  0.931715287977E-02  0.993134263089E-02  0.105859069862E-01
  0.112834845945E-01  0.120268844404E-01  0.128190965508E-01  0.136633033336E-01  0.145628915812E-01
  0.155214651705E-01  0.165428584934E-01  0.176311506504E-01  0.187906804416E-01  0.200260621882E-01
  0.213422024192E-01  0.227443174544E-01  0.242379519165E-01  0.258289982026E-01  0.275237169420E-01
  0.293287584669E-01  0.312511853157E-01  0.332984957883E-01  0.354786485625E-01  0.378000883771E-01
  0.402717727784E-01  0.429031999155E-01  0.457044373593E-01  0.486861519066E-01  0.518596403124E-01
  0.552368608769E-01  0.588304657887E-01  0.626538341025E-01  0.667211051978E-01  0.710472125308E-01
  0.756479174528E-01  0.805398428223E-01  0.857405060865E-01  0.912683514473E-01  0.971427806615E-01
  0.103384181946E+00  0.110013956377E+00  0.117054541064E+00  0.124529428285E+00  0.132463179632E+00
  0.140881434088E+00  0.149810908791E+00  0.159279391082E+00  0.169315720238E+00  0.179949757079E+00
  0.191212339405E+00  0.203135220984E+00  0.215750991499E+00  0.229092974610E+00  0.243195100921E+00
  0.258091752325E+00  0.273817573818E+00  0.290407248495E+00  0.307895231044E+00  0.326315434621E+00
  0.345700865617E+00  0.366083200376E+00  0.387492297577E+00  0.409955639630E+00  0.433497696133E+00
  0.458139202272E+00  0.483896344906E+00  0.510779849194E+00  0.538793958859E+00  0.567935303743E+00
  0.598191649131E+00  0.629540522643E+00  0.661947716212E+00  0.695365663067E+00  0.729731692756E+00
  0.764966171173E+00  0.800970537590E+00  0.837625256793E+00  0.874787711977E+00  0.912290073031E+00
  0.949937185590E+00  0.987504538761E+00  0.102473638394E+01  0.106134409369E+01  0.109700486822E+01
  0.113136091736E+01  0.116401926798E+01  0.119455236995E+01  0.122249969669E+01  0.124737055915E+01
  0.126864837130E+01  0.128579662026E+01  0.129826680116E+01  0.130550857212E+01  0.130698236396E+01
  0.130217463644E+01  0.129061590119E+01  0.127190152354E+01  0.124571516241E+01  0.121185449991E+01
  0.117025864180E+01  0.112103622797E+01  0.106449287314E+01  0.100115606042E+01  0.931795040520E+00
  0.857432661772E+00  0.779345402043E+00  0.699047242024E+00  0.618252484940E+00  0.538812295464E+00
  0.462619741820E+00  0.391478660130E+00  0.326932939352E+00  0.270055102783E+00  0.221196826319E+00
  0.179843038209E+00  0.145125901264E+00  0.116206985076E+00  0.923083845211E-01  0.727197310953E-01
  0.567996025160E-01  0.439743758461E-01  0.337360022855E-01  0.256391044715E-01  0.192974438926E-01
  0.143798010507E-01  0.106053812806E-01  0.773890770412E-02  0.558557631111E-02  0.398603740314E-02
  0.281154393123E-02  0.195937834686E-02  0.134863979842E-02  0.916445140983E-03  0.614571607204E-03
  0.406546883394E-03  0.265174230627E-03  0.170466362099E-03  0.107951989304E-03  0.673129819846E-04
  0.413074774049E-04  0.249344299794E-04  0.147973590028E-04  0.862878698542E-05  0.494147196547E-05
  0.277752154570E-05  0.153143743619E-05  0.827790091211E-06  0.438379611352E-06  0.227305839049E-06
  0.115322007881E-06  0.572079016965E-07  0.277288547362E-07  0.131225504078E-07  0.605872464811E-08
  0.272693354101E-08  0.119547105599E-08
 pseudo wavefunction
  0.270016013088E-04  0.278796260255E-04  0.287862019158E-04  0.297222573927E-04  0.306887510589E-04
  0.316866726884E-04  0.327170442402E-04  0.337809209048E-04  0.348793921851E-04  0.360135830116E-04
  0.371846548949E-04  0.383938071150E-04  0.396422779497E-04  0.409313459421E-04  0.422623312107E-04
  0.436365968009E-04  0.450555500807E-04  0.465206441826E-04  0.480333794910E-04  0.495953051793E-04
  0.512080207960E-04  0.528731779031E-04  0.545924817672E-04  0.563676931059E-04  0.582006298912E-04
  0.600931692106E-04  0.620472491902E-04  0.640648709791E-04  0.661481007987E-04  0.682990720587E-04
  0.705199875423E-04  0.728131216614E-04  0.751808227865E-04  0.776255156511E-04  0.801497038350E-04
  0.827559723283E-04  0.854469901786E-04  0.882255132242E-04  0.910943869167E-04  0.940565492347E-04
  0.971150336924E-04  0.100272972447E-03  0.103533599504E-03  0.106900254034E-03  0.110376383787E-03
  0.113965548624E-03  0.117671424168E-03  0.121497805560E-03  0.125448611354E-03  0.129527887521E-03
  0.133739811602E-03  0.138088696977E-03  0.142578997290E-03  0.147215311005E-03  0.152002386118E-03
  0.156945125018E-03  0.162048589506E-03  0.167318005983E-03  0.172758770800E-03  0.178376455784E-03
  0.184176813943E-03  0.190165785360E-03  0.196349503278E-03  0.202734300375E-03  0.209326715255E-03
  0.216133499140E-03  0.223161622789E-03  0.230418283631E-03  0.237910913141E-03  0.245647184447E-03
  0.253635020190E-03  0.261882600638E-03  0.270398372062E-03  0.279191055387E-03  0.288269655124E-03
  0.297643468589E-03  0.307322095429E-03  0.317315447448E-03  0.327633758763E-03  0.338287596281E-03
  0.349287870524E-03  0.360645846801E-03  0.372373156745E-03  0.384481810229E-03  0.396984207661E-03
  0.409893152686E-03  0.423221865302E-03  0.436983995392E-03  0.451193636714E-03  0.465865341324E-03
  0.481014134491E-03  0.496655530076E-03  0.512805546430E-03  0.529480722790E-03  0.546698136230E-03
  0.564475419142E-03  0.582830777299E-03  0.601783008504E-03  0.621351521840E-03  0.641556357553E-03
  0.662418207575E-03  0.683958436720E-03  0.706199104569E-03  0.729162988063E-03  0.752873604835E-03
  0.777355237300E-03  0.802632957527E-03  0.828732652925E-03  0.855681052756E-03  0.883505755522E-03
  0.912235257236E-03  0.941898980612E-03  0.972527305207E-03  0.100415159855E-02  0.103680424827E-02
  0.107051869530E-02  0.110532946809E-02  0.114127221805E-02  0.117838375603E-02  0.121670209006E-02
  0.125626646429E-02  0.129711739923E-02  0.133929673323E-02  0.138284766539E-02  0.142781479984E-02
  0.147424419141E-02  0.152218339292E-02  0.157168150383E-02  0.162278922064E-02  0.167555888885E-02
  0.173004455659E-02  0.178630203010E-02  0.184438893092E-02  0.190436475496E-02  0.196629093358E-02
  0.203023089655E-02  0.209625013715E-02  0.216441627931E-02  0.223479914709E-02  0.230747083623E-02
  0.238250578822E-02  0.245998086668E-02  0.253997543626E-02  0.262257144416E-02  0.270785350427E-02
  0.279590898411E-02  0.288682809454E-02  0.298070398251E-02  0.307763282678E-02  0.317771393679E-02
  0.328104985480E-02  0.338774646135E-02  0.349791308424E-02  0.361166261101E-02  0.372911160519E-02
  0.385038042634E-02  0.397559335410E-02  0.410487871624E-02  0.423836902101E-02  0.437620109385E-02
  0.451851621862E-02  0.466546028348E-02  0.481718393164E-02  0.497384271711E-02  0.513559726560E-02
  0.530261344084E-02  0.547506251636E-02  0.565312135305E-02  0.583697258270E-02  0.602680479760E-02
  0.622281274659E-02  0.642519753766E-02  0.663416684737E-02  0.684993513743E-02  0.707272387847E-02
  0.730276178158E-02  0.754028503760E-02  0.778553756467E-02  0.803877126421E-02  0.830024628571E-02
  0.857023130070E-02  0.884900378613E-02  0.913685031764E-02  0.943406687308E-02  0.974095914663E-02
  0.100578428740E-01  0.103850441691E-01  0.107228998729E-01  0.110717579141E-01  0.114319776839E-01
  0.118039304229E-01  0.121879996237E-01  0.125845814466E-01  0.129940851517E-01  0.134169335469E-01
  0.138535634523E-01  0.143044261827E-01  0.147699880473E-01  0.152507308703E-01  0.157471525300E-01
  0.162597675201E-01  0.167891075323E-01  0.173357220630E-01  0.179001790434E-01  0.184830654965E-01
  0.190849882197E-01  0.197065744972E-01  0.203484728415E-01  0.210113537673E-01  0.216959105980E-01
  0.224028603083E-01  0.231329444039E-01  0.238869298411E-01  0.246656099877E-01  0.254698056293E-01
  0.263003660227E-01  0.271581699989E-01  0.280441271205E-01  0.289591788957E-01  0.299043000529E-01
  0.308804998801E-01  0.318888236334E-01  0.329303540195E-01  0.340062127568E-01  0.351175622212E-01
  0.362656071825E-01  0.374515966372E-01  0.386768257457E-01  0.399426378813E-01  0.412504267978E-01
  0.426016389272E-01  0.439977758147E-01  0.454403967027E-01  0.469311212751E-01  0.484716325731E-01
  0.500636800972E-01  0.517090831081E-01  0.534097341431E-01  0.551676027641E-01  0.569847395548E-01
  0.588632803870E-01  0.608054509764E-01  0.628135717501E-01  0.648900630499E-01  0.670374506971E-01
  0.692583719462E-01  0.715555818559E-01  0.739319601100E-01  0.763905183203E-01  0.789344078460E-01
  0.815669281681E-01  0.842915358557E-01  0.871118541659E-01  0.900316833194E-01  0.930550114941E-01
  0.961860265837E-01  0.994291287629E-01  0.102788943909E+00  0.106270337923E+00  0.109878431989E+00
  0.113618618824E+00  0.117496579946E+00  0.121518303994E+00  0.125690106134E+00  0.130018648551E+00
  0.134510962044E+00  0.139174468710E+00  0.144017005674E+00  0.149046849830E+00  0.154272743480E+00
  0.159703920785E+00  0.165350134823E+00  0.171221685077E+00  0.177329445040E+00  0.183684889610E+00
  0.190300121814E+00  0.197187898338E+00  0.204361653174E+00  0.211835518615E+00  0.219624342597E+00
  0.227743701268E+00  0.236209905395E+00  0.245039999013E+00  0.254251748417E+00  0.263863619311E+00
  0.273894739542E+00  0.284364844488E+00  0.295294201725E+00  0.306703511115E+00  0.318613775971E+00
  0.331046140376E+00  0.344021687199E+00  0.357561190714E+00  0.371684817176E+00  0.386411766097E+00
  0.401759844451E+00  0.417744965583E+00  0.434380564272E+00  0.451676919270E+00  0.469640374754E+00
  0.488272452632E+00  0.507568848546E+00  0.527518305979E+00  0.548101365107E+00  0.569288986233E+00
  0.591041051895E+00  0.613304757323E+00  0.636012906042E+00  0.659082136243E+00  0.682411114351E+00
  0.705878745124E+00  0.729342462706E+00  0.752636684373E+00  0.775571527983E+00  0.797931915034E+00
  0.819477203033E+00  0.839941512327E+00  0.859034932244E+00  0.876445806806E+00  0.891844308672E+00
  0.904887507341E+00  0.915218814000E+00  0.922553366092E+00  0.926789310709E+00  0.927902948292E+00
  0.925895166170E+00  0.920791817160E+00  0.912643928374E+00  0.901527630266E+00  0.887543713739E+00
  0.870816806714E+00  0.851494169999E+00  0.829744157005E+00  0.805754354582E+00  0.779729464470E+00
  0.751888942940E+00  0.722464432610E+00  0.691697016855E+00  0.659834302668E+00  0.627127370346E+00
  0.593827612363E+00  0.560183509280E+00  0.526437406698E+00  0.492822374667E+00  0.459559246768E+00
  0.426853941584E+00  0.394895163143E+00  0.363852558388E+00  0.333875381604E+00  0.305091682750E+00
  0.277608004228E+00  0.251509543488E+00  0.226860719737E+00  0.203706073104E+00  0.182071422668E+00
  0.161965214246E+00  0.143379997662E+00
 ae wavefunction
  0.566761764184E-03  0.585089794940E-03  0.604009958552E-03  0.623541348843E-03  0.643703673026E-03
  0.664517271261E-03  0.686003136800E-03  0.708182936800E-03  0.731079033747E-03  0.754714507570E-03
  0.779113178440E-03  0.804299630270E-03  0.830299234960E-03  0.857138177396E-03  0.884843481181E-03
  0.913443035233E-03  0.942965621150E-03  0.973440941438E-03  0.100489964861E-02  0.103737337518E-02
  0.107089476458E-02  0.110549750301E-02  0.114121635228E-02  0.117808718366E-02  0.121614701274E-02
  0.125543403536E-02  0.129598766464E-02  0.133784856912E-02  0.138105871205E-02  0.142566139191E-02
  0.147170128403E-02  0.151922448363E-02  0.156827854997E-02  0.161891255198E-02  0.167117711509E-02
  0.172512446959E-02  0.178080850032E-02  0.183828479787E-02  0.189761071125E-02  0.195884540216E-02
  0.202204990075E-02  0.208728716308E-02  0.215462213021E-02  0.222412178898E-02  0.229585523451E-02
  0.236989373456E-02  0.244631079565E-02  0.252518223103E-02  0.260658623064E-02  0.269060343294E-02
  0.277731699877E-02  0.286681268727E-02  0.295917893384E-02  0.305450693023E-02  0.315289070682E-02
  0.325442721713E-02  0.335921642446E-02  0.346736139102E-02  0.357896836921E-02  0.369414689534E-02
  0.381300988583E-02  0.393567373575E-02  0.406225841990E-02  0.419288759645E-02  0.432768871303E-02
  0.446679311549E-02  0.461033615929E-02  0.475845732344E-02  0.491130032717E-02  0.506901324930E-02
  0.523174865023E-02  0.539966369673E-02  0.557292028942E-02  0.575168519294E-02  0.593613016889E-02
  0.612643211147E-02  0.632277318582E-02  0.652534096905E-02  0.673432859387E-02  0.694993489496E-02
  0.717236455778E-02  0.740182826994E-02  0.763854287511E-02  0.788273152912E-02  0.813462385857E-02
  0.839445612142E-02  0.866247136982E-02  0.893891961476E-02  0.922405799255E-02  0.951815093298E-02
  0.982147032884E-02  0.101342957067E-01  0.104569143988E-01  0.107896217155E-01  0.111327211184E-01
  0.114865243936E-01  0.118513518247E-01  0.122275323655E-01  0.126154038115E-01  0.130153129704E-01
  0.134276158306E-01  0.138526777272E-01  0.142908735056E-01  0.147425876813E-01  0.152082145954E-01
  0.156881585660E-01  0.161828340331E-01  0.166926656978E-01  0.172180886539E-01  0.177595485117E-01
  0.183175015117E-01  0.188924146291E-01  0.194847656660E-01  0.200950433311E-01  0.207237473055E-01
  0.213713882929E-01  0.220384880524E-01  0.227255794130E-01  0.234332062677E-01  0.241619235448E-01
  0.249122971554E-01  0.256849039141E-01  0.264803314309E-01  0.272991779728E-01  0.281420522902E-01
  0.290095734085E-01  0.299023703791E-01  0.308210819891E-01  0.317663564244E-01  0.327388508844E-01
  0.337392311437E-01  0.347681710575E-01  0.358263520060E-01  0.369144622742E-01  0.380331963620E-01
  0.391832542202E-01  0.403653404071E-01  0.415801631607E-01  0.428284333805E-01  0.441108635136E-01
  0.454281663385E-01  0.467810536402E-01  0.481702347706E-01  0.495964150858E-01  0.510602942541E-01
  0.525625644273E-01  0.541039082654E-01  0.556849968089E-01  0.573064871885E-01  0.589690201634E-01
  0.606732174797E-01  0.624196790384E-01  0.642089798642E-01  0.660416668642E-01  0.679182553659E-01
  0.698392254253E-01  0.718050178921E-01  0.738160302234E-01  0.758726120317E-01  0.779750603596E-01
  0.801236146659E-01  0.823184515146E-01  0.845596789542E-01  0.868473305758E-01  0.891813592393E-01
  0.915616304573E-01  0.939879154250E-01  0.964598836872E-01  0.989770954329E-01  0.101538993408E+00
  0.104144894437E+00  0.106793980556E+00  0.109485289731E+00  0.112217706185E+00  0.114989950305E+00
  0.117800568148E+00  0.120647920533E+00  0.123530171732E+00  0.126445277762E+00  0.129390974289E+00
  0.132364764153E+00  0.135363904539E+00  0.138385393795E+00  0.141425957948E+00  0.144482036925E+00
  0.147549770520E+00  0.150624984153E+00  0.153703174460E+00  0.156779494768E+00  0.159848740516E+00
  0.162905334693E+00  0.165943313356E+00  0.168956311334E+00  0.171937548186E+00  0.174879814541E+00
  0.177775458914E+00  0.180616375138E+00  0.183393990536E+00  0.186099254996E+00  0.188722631088E+00
  0.191254085425E+00  0.193683081426E+00  0.195998573706E+00  0.198189004286E+00  0.200242300869E+00
  0.202145877412E+00  0.203886637256E+00  0.205450979081E+00  0.206824805967E+00  0.207993537866E+00
  0.208942127772E+00  0.209655081936E+00  0.210116484424E+00  0.210310026375E+00  0.210219040290E+00
  0.209826539703E+00  0.209115264570E+00  0.208067732739E+00  0.206666297816E+00  0.204893213777E+00
  0.202730706629E+00  0.200161053410E+00  0.197166668820E+00  0.193730199685E+00  0.189834627493E+00
  0.185463379120E+00  0.180600445873E+00  0.175230510862E+00  0.169339084692E+00  0.162912649341E+00
  0.155938810037E+00  0.148406454823E+00  0.140305921424E+00  0.131629170879E+00  0.122369967329E+00
  0.112524063174E+00  0.102089388728E+00  0.910662453095E-01  0.794575005987E-01  0.672687848746E-01
  0.545086865865E-01  0.411889454662E-01  0.273246411299E-01  0.129343748063E-01 -0.195955851654E-02
 -0.173310105716E-01 -0.331498362256E-01 -0.493817691543E-01 -0.659883197055E-01 -0.829266968103E-01
 -0.100149753969E+00 -0.117605956930E+00 -0.135239368409E+00 -0.152989644231E+00 -0.170792036980E+00
 -0.188577408212E+00 -0.206272258066E+00 -0.223798789442E+00 -0.241075029584E+00 -0.258015031236E+00
 -0.274529166798E+00 -0.290524514535E+00 -0.305905322476E+00 -0.320573530004E+00 -0.334429330424E+00
 -0.347371765880E+00 -0.359299352925E+00 -0.370110740115E+00 -0.379705398316E+00 -0.387984341684E+00
 -0.394850874618E+00 -0.400211357513E+00 -0.403975983252E+00 -0.406059555685E+00 -0.406382261737E+00
 -0.404870429367E+00 -0.401457264103E+00 -0.396083557734E+00 -0.388698363271E+00 -0.379259631235E+00
 -0.367734802286E+00 -0.354101352586E+00 -0.338347287670E+00 -0.320471581971E+00 -0.300484560189E+00
 -0.278408217651E+00 -0.254276475726E+00 -0.228135368596E+00 -0.200043156591E+00 -0.170070361023E+00
 -0.138299714514E+00 -0.104826020596E+00 -0.697559161417E-01 -0.332075310253E-01  0.468995904144E-02
  0.437968875568E-01  0.839637569215E-01  0.125031994033E+00  0.166834787004E+00  0.209197983007E+00
  0.251941024838E+00  0.294877906584E+00  0.337818139313E+00  0.380567737944E+00  0.422930271749E+00
  0.464708065063E+00  0.505703692578E+00  0.545721983152E+00  0.584572800856E+00  0.622074818374E+00
  0.658060116055E+00  0.692378435680E+00  0.724898373021E+00  0.755502088528E+00  0.784072893569E+00
  0.810481564933E+00  0.834581011585E+00  0.856213260432E+00  0.875223044098E+00  0.891469665785E+00
  0.904833586859E+00  0.915218814000E+00  0.922553366092E+00  0.926789310709E+00  0.927902948292E+00
  0.925895166170E+00  0.920791817160E+00  0.912643928374E+00  0.901527630266E+00  0.887543713739E+00
  0.870816806714E+00  0.851494169999E+00  0.829744157005E+00  0.805754354582E+00  0.779729464470E+00
  0.751888942940E+00  0.722464432610E+00  0.691697016855E+00  0.659834302668E+00  0.627127370346E+00
  0.593827612363E+00  0.560183509280E+00  0.526437406698E+00  0.492822374667E+00  0.459559246768E+00
  0.426853941584E+00  0.394895163143E+00  0.363852558388E+00  0.333875381604E+00  0.305091682750E+00
  0.277608004228E+00  0.251509543488E+00  0.226860719737E+00  0.203706073104E+00  0.182071422668E+00
  0.161965214246E+00  0.143379997662E+00
 pseudo wavefunction
  0.475353529281E-04  0.490810840239E-04  0.506770784392E-04  0.523249706118E-04  0.540264481276E-04
  0.557832534481E-04  0.575971856956E-04  0.594701024954E-04  0.614039218779E-04  0.634006242435E-04
  0.654622543898E-04  0.675909236065E-04  0.697888118369E-04  0.720581699109E-04  0.744013218497E-04
  0.768206672456E-04  0.793186837201E-04  0.818979294606E-04  0.845610458404E-04  0.873107601235E-04
  0.901498882581E-04  0.930813377598E-04  0.961081106895E-04  0.992333067275E-04  0.102460126348E-03
  0.105791874097E-03  0.109231961976E-03  0.112783912936E-03  0.116451364486E-03  0.120238072418E-03
  0.124147914652E-03  0.128184895209E-03  0.132353148311E-03  0.136656942614E-03  0.141100685582E-03
  0.145688927997E-03  0.150426368621E-03  0.155317859010E-03  0.160368408478E-03  0.165583189232E-03
  0.170967541665E-03  0.176526979826E-03  0.182267197070E-03  0.188194071882E-03  0.194313673904E-03
  0.200632270147E-03  0.207156331409E-03  0.213892538903E-03  0.220847791100E-03  0.228029210789E-03
  0.235444152379E-03  0.243100209424E-03  0.251005222402E-03  0.259167286744E-03  0.267594761127E-03
  0.276296276030E-03  0.285280742573E-03  0.294557361649E-03  0.304135633336E-03  0.314025366637E-03
  0.324236689516E-03  0.334780059278E-03  0.345666273272E-03  0.356906479953E-03  0.368512190296E-03
  0.380495289587E-03  0.392868049593E-03  0.405643141131E-03  0.418833647043E-03  0.432453075595E-03
  0.446515374311E-03  0.461034944257E-03  0.476026654787E-03  0.491505858776E-03  0.507488408337E-03
  0.523990671062E-03  0.541029546779E-03  0.558622484860E-03  0.576787502097E-03  0.595543201146E-03
  0.614908789584E-03  0.634904099578E-03  0.655549608194E-03  0.676866458373E-03  0.698876480583E-03
  0.721602215173E-03  0.745066935461E-03  0.769294671572E-03  0.794310235042E-03  0.820139244235E-03
  0.846808150580E-03  0.874344265658E-03  0.902775789180E-03  0.932131837864E-03  0.962442475257E-03
  0.993738742531E-03  0.102605269027E-02  0.105941741130E-02  0.109386707458E-02  0.112943696021E-02
  0.116616349554E-02  0.120408429254E-02  0.124323818623E-02  0.128366527457E-02  0.132540695942E-02
  0.136850598906E-02  0.141300650188E-02  0.145895407165E-02  0.150639575419E-02  0.155538013557E-02
  0.160595738190E-02  0.165817929068E-02  0.171209934390E-02  0.176777276283E-02  0.182525656455E-02
  0.188460962045E-02  0.194589271644E-02  0.200916861532E-02  0.207450212103E-02  0.214196014510E-02
  0.221161177514E-02  0.228352834573E-02  0.235778351145E-02  0.243445332236E-02  0.251361630199E-02
  0.259535352780E-02  0.267974871425E-02  0.276688829863E-02  0.285686152968E-02  0.294976055906E-02
  0.304568053584E-02  0.314471970404E-02  0.324697950337E-02  0.335256467327E-02  0.346158336029E-02
  0.357414722905E-02  0.369037157672E-02  0.381037545136E-02  0.393428177403E-02  0.406221746491E-02
  0.419431357356E-02  0.433070541340E-02  0.447153270065E-02  0.461693969776E-02  0.476707536149E-02
  0.492209349599E-02  0.508215291069E-02  0.524741758353E-02  0.541805682945E-02  0.559424547440E-02
  0.577616403513E-02  0.596399890477E-02  0.615794254465E-02  0.635819368225E-02  0.656495751579E-02
  0.677844592554E-02  0.699887769198E-02  0.722647872133E-02  0.746148227832E-02  0.770412922681E-02
  0.795466827827E-02  0.821335624854E-02  0.848045832299E-02  0.875624833065E-02  0.904100902723E-02
  0.933503238776E-02  0.963861990879E-02  0.995208292081E-02  0.102757429110E-01  0.106099318569E-01
  0.109549925711E-01  0.113112790575E-01  0.116791568802E-01  0.120590035434E-01  0.124512088858E-01
  0.128561754872E-01  0.132743190897E-01  0.137060690321E-01  0.141518687009E-01  0.146121759949E-01
  0.150874638074E-01  0.155782205237E-01  0.160849505366E-01  0.166081747798E-01  0.171484312798E-01
  0.177062757268E-01  0.182822820662E-01  0.188770431113E-01  0.194911711765E-01  0.201252987350E-01
  0.207800790985E-01  0.214561871223E-01  0.221543199364E-01  0.228751977023E-01  0.236195643991E-01
  0.243881886374E-01  0.251818645050E-01  0.260014124436E-01  0.268476801591E-01  0.277215435675E-01
  0.286239077761E-01  0.295557081046E-01  0.305179111454E-01  0.315115158667E-01  0.325375547597E-01
  0.335970950334E-01  0.346912398576E-01  0.358211296583E-01  0.369879434676E-01  0.381929003317E-01
  0.394372607791E-01  0.407223283540E-01  0.420494512170E-01  0.434200238188E-01  0.448354886496E-01
  0.462973380703E-01  0.478071162292E-01  0.493664210708E-01  0.509769064413E-01  0.526402842980E-01
  0.543583270295E-01  0.561328698928E-01  0.579658135761E-01  0.598591268964E-01  0.618148496395E-01
  0.638350955540E-01  0.659220555083E-01  0.680780008245E-01  0.703052867998E-01  0.726063564294E-01
  0.749837443466E-01  0.774400809945E-01  0.799780970479E-01  0.826006281024E-01  0.853106196513E-01
  0.881111323731E-01  0.910053477496E-01  0.939965740430E-01  0.970882526565E-01  0.100283964908E+00
  0.103587439249E+00  0.107002558958E+00  0.110533370348E+00  0.114184091525E+00  0.117959121737E+00
  0.121863051355E+00  0.125900672531E+00  0.130076990588E+00  0.134397236183E+00  0.138866878297E+00
  0.143491638118E+00  0.148277503855E+00  0.153230746560E+00  0.158357937006E+00  0.163665963684E+00
  0.169162051983E+00  0.174853784606E+00  0.180749123279E+00  0.186856431808E+00  0.193184500531E+00
  0.199742572192E+00  0.206540369276E+00  0.213588122811E+00  0.220896602625E+00  0.228477149037E+00
  0.236341705907E+00  0.244502854963E+00  0.252973851253E+00  0.261768659523E+00  0.270901991270E+00
  0.280389342121E+00  0.290247029098E+00  0.300492227243E+00  0.311143004906E+00  0.322218356867E+00
  0.333738234295E+00  0.345723570300E+00  0.358196299615E+00  0.371179370666E+00  0.384696747930E+00
  0.398773402146E+00  0.413435285489E+00  0.428709288350E+00  0.444623173807E+00  0.461205485276E+00
  0.478485422142E+00  0.496492677413E+00  0.515257230646E+00  0.534809088460E+00  0.555177964057E+00
  0.576392886116E+00  0.598481726420E+00  0.621470634538E+00  0.645383366834E+00  0.670240496164E+00
  0.696058487796E+00  0.722848626481E+00  0.750615779348E+00  0.779356979433E+00  0.809059815417E+00
  0.839700614696E+00  0.871242409426E+00  0.903632679037E+00  0.936800868065E+00  0.970655685445E+00
  0.100508220102E+01  0.103993876723E+01  0.107505380933E+01  0.111022254631E+01  0.114520372732E+01
  0.117971649523E+01  0.121343751957E+01  0.124599857630E+01  0.127698478962E+01  0.130593379197E+01
  0.133233609948E+01  0.135563703917E+01  0.137524059831E+01  0.139051558934E+01  0.140080453040E+01
  0.140543562342E+01  0.140373815970E+01  0.139513379366E+01  0.137937067248E+01  0.135631150814E+01
  0.132586237117E+01  0.000000000000E+00  0.000000000000E+00  0.000000000000E+00  0.000000000000E+00
  0.000000000000E+00  0.000000000000E+00  0.000000000000E+00  0.000000000000E+00  0.000000000000E+00
  0.000000000000E+00  0.000000000000E+00  0.000000000000E+00  0.000000000000E+00  0.000000000000E+00
  0.000000000000E+00  0.000000000000E+00  0.000000000000E+00  0.000000000000E+00  0.000000000000E+00
  0.000000000000E+00  0.000000000000E+00  0.000000000000E+00  0.000000000000E+00  0.000000000000E+00
  0.000000000000E+00  0.000000000000E+00  0.000000000000E+00  0.000000000000E+00  0.000000000000E+00
  0.000000000000E+00  0.000000000000E+00
 ae wavefunction
  0.946286484289E-03  0.976887644800E-03  0.100847745229E-02  0.104108778652E-02  0.107475155137E-02
  0.110950270754E-02  0.114537630613E-02  0.118240852342E-02  0.122063669667E-02  0.126009936096E-02
  0.130083628734E-02  0.134288852201E-02  0.138629842685E-02  0.143110972111E-02  0.147736752438E-02
  0.152511840106E-02  0.157441040594E-02  0.162529313144E-02  0.167781775612E-02  0.173203709480E-02
  0.178800565016E-02  0.184577966591E-02  0.190541718168E-02  0.196697808945E-02  0.203052419181E-02
  0.209611926196E-02  0.216382910549E-02  0.223372162409E-02  0.230586688118E-02  0.238033716945E-02
  0.245720708051E-02  0.253655357663E-02  0.261845606451E-02  0.270299647142E-02  0.279025932347E-02
  0.288033182626E-02  0.297330394791E-02  0.306926850450E-02  0.316832124805E-02  0.327056095711E-02
  0.337608952985E-02  0.348501208004E-02  0.359743703564E-02  0.371347624032E-02  0.383324505786E-02
  0.395686247950E-02  0.408445123441E-02  0.421613790318E-02  0.435205303458E-02  0.449233126553E-02
  0.463711144441E-02  0.478653675780E-02  0.494075486067E-02  0.509991801007E-02  0.526418320257E-02
  0.543371231525E-02  0.560867225051E-02  0.578923508471E-02  0.597557822071E-02  0.616788454431E-02
  0.636634258483E-02  0.657114667968E-02  0.678249714312E-02  0.700060043924E-02  0.722566935920E-02
  0.745792320274E-02  0.769758796416E-02  0.794489652260E-02  0.820008883680E-02  0.846341214442E-02
  0.873512116572E-02  0.901547831190E-02  0.930475389793E-02  0.960322635991E-02  0.991118247705E-02
  0.102289175981E-01  0.105567358723E-01  0.108949504849E-01  0.112438838969E-01  0.116038680896E-01
  0.119752448129E-01  0.123583658379E-01  0.127535932143E-01  0.131612995305E-01  0.135818681788E-01
  0.140156936234E-01  0.144631816722E-01  0.149247497518E-01  0.154008271854E-01  0.158918554735E-01
  0.163982885772E-01  0.169205932028E-01  0.174592490893E-01  0.180147492962E-01  0.185876004922E-01
  0.191783232450E-01  0.197874523097E-01  0.204155369172E-01  0.210631410609E-01  0.217308437807E-01
  0.224192394450E-01  0.231289380273E-01  0.238605653796E-01  0.246147634990E-01  0.253921907878E-01
  0.261935223053E-01  0.270194500105E-01  0.278706829944E-01  0.287479476994E-01  0.296519881256E-01
  0.305835660218E-01  0.315434610585E-01  0.325324709826E-01  0.335514117506E-01  0.346011176376E-01
  0.356824413213E-01  0.367962539371E-01  0.379434451020E-01  0.391249229040E-01  0.403416138553E-01
  0.415944628033E-01  0.428844327985E-01  0.442125049145E-01  0.455796780154E-01  0.469869684671E-01
  0.484354097881E-01  0.499260522343E-01  0.514599623133E-01  0.530382222224E-01  0.546619292044E-01
  0.563321948159E-01  0.580501441007E-01  0.598169146620E-01  0.616336556265E-01  0.635015264917E-01
  0.654216958502E-01  0.673953399809E-01  0.694236412990E-01  0.715077866555E-01  0.736489654766E-01
  0.758483677324E-01  0.781071817239E-01  0.804265916777E-01  0.828077751370E-01  0.852519001350E-01
  0.877601221396E-01  0.903335807552E-01  0.929733961681E-01  0.956806653206E-01  0.984564577996E-01
  0.101301811424E+00  0.104217727515E+00  0.107205165830E+00  0.110265039152E+00  0.113398207505E+00
  0.116605471986E+00  0.119887568194E+00  0.123245159234E+00  0.126678828283E+00  0.130189070697E+00
  0.133776285631E+00  0.137440767169E+00  0.141182694937E+00  0.145002124172E+00  0.148898975243E+00
  0.152873022597E+00  0.156923883118E+00  0.161051003870E+00  0.165253649227E+00  0.169530887361E+00
  0.173881576076E+00  0.178304347991E+00  0.182797595037E+00  0.187359452288E+00  0.191987781102E+00
  0.196680151580E+00  0.201433824345E+00  0.206245731638E+00  0.211112457759E+00  0.216030218848E+00
  0.220994842038E+00  0.226001744012E+00  0.231045908978E+00  0.236121866126E+00  0.241223666598E+00
  0.246344860036E+00  0.251478470771E+00  0.256616973737E+00  0.261752270189E+00  0.266875663329E+00
  0.271977833953E+00  0.277048816251E+00  0.282077973881E+00  0.287053976505E+00  0.291964776931E+00
  0.296797589064E+00  0.301538866883E+00  0.306174284654E+00  0.310688718637E+00  0.315066230561E+00
  0.319290053145E+00  0.323342577988E+00  0.327205346155E+00  0.330859041823E+00  0.334283489370E+00
  0.337457654304E+00  0.340359648469E+00  0.342966739972E+00  0.345255368314E+00  0.347201165207E+00
  0.348778981606E+00  0.349962921475E+00  0.350726382852E+00  0.351042106757E+00  0.350882234534E+00
  0.350218374201E+00  0.349021676379E+00  0.347262920393E+00  0.344912611114E+00  0.341941087075E+00
  0.338318640427E+00  0.334015649194E+00  0.329002722309E+00  0.323250857825E+00  0.316731614641E+00
  0.309417298002E+00  0.301281158953E+00  0.292297607813E+00  0.282442441618E+00  0.271693085359E+00
  0.260028846681E+00  0.247431183555E+00  0.233883984261E+00  0.219373858839E+00  0.203890440934E+00
  0.187426698801E+00  0.169979253960E+00  0.151548705790E+00  0.132139960063E+00  0.111762559148E+00
  0.904310112909E-01  0.681651159683E-01  0.449902819033E-01  0.209378337809E-01 -0.395469686239E-02
 -0.296433016738E-01 -0.560772519773E-01 -0.831988873035E-01 -0.110943440857E+00 -0.139238905048E+00
 -0.168005937148E+00 -0.197157801119E+00 -0.226600337872E+00 -0.256231954643E+00 -0.285943627012E+00
 -0.315618915486E+00 -0.345134011520E+00 -0.374357841868E+00 -0.403152269554E+00 -0.431372428650E+00
 -0.458867215411E+00 -0.485479934244E+00 -0.511049074644E+00 -0.535409185819E+00 -0.558391821276E+00
 -0.579826539200E+00 -0.599541956052E+00 -0.617366855914E+00 -0.633131357050E+00 -0.646668132480E+00
 -0.657813677072E+00 -0.666409609392E+00 -0.672303995220E+00 -0.675352678412E+00 -0.675420605508E+00
 -0.672383131446E+00 -0.666127294606E+00 -0.656553050815E+00 -0.643574456879E+00 -0.627120795714E+00
 -0.607137635122E+00 -0.583587814480E+00 -0.556452352587E+00 -0.525731272119E+00 -0.491444334529E+00
 -0.453631680676E+00 -0.412354370688E+00 -0.367694816715E+00 -0.319757100442E+00 -0.268667166551E+00
 -0.214572881713E+00 -0.157643948191E+00 -0.980716607486E-01 -0.360684968577E-01  0.281324671760E-01
  0.942783165488E-01  0.162097229926E+00  0.231299569030E+00  0.301579101858E+00  0.372614327160E+00
  0.444069864291E+00  0.515597878146E+00  0.586839527582E+00  0.657426460744E+00  0.726982434018E+00
  0.795125205326E+00  0.861468947982E+00  0.925627543788E+00  0.987219197295E+00  0.104587270868E+01
  0.110123508601E+01  0.115297849614E+01  0.120080202729E+01  0.124442270550E+01  0.128355499563E+01
  0.131788876255E+01  0.134708153268E+01  0.137077114244E+01  0.138859893137E+01  0.140022976064E+01
  0.140536324569E+01  0.140373815970E+01  0.139513379366E+01  0.137937067248E+01  0.135631150814E+01
  0.132586237117E+01  0.000000000000E+00  0.000000000000E+00  0.000000000000E+00  0.000000000000E+00
  0.000000000000E+00  0.000000000000E+00  0.000000000000E+00  0.000000000000E+00  0.000000000000E+00
  0.000000000000E+00  0.000000000000E+00  0.000000000000E+00  0.000000000000E+00  0.000000000000E+00
  0.000000000000E+00  0.000000000000E+00  0.000000000000E+00  0.000000000000E+00  0.000000000000E+00
  0.000000000000E+00  0.000000000000E+00  0.000000000000E+00  0.000000000000E+00  0.000000000000E+00
  0.000000000000E+00  0.000000000000E+00  0.000000000000E+00  0.000000000000E+00  0.000000000000E+00
  0.000000000000E+00  0.000000000000E+00
 pseudo wavefunction
  0.133128142169E-08  0.141926900423E-08  0.151307189715E-08  0.161307444827E-08  0.171968640786E-08
  0.183334460759E-08  0.195451475037E-08  0.208369331853E-08  0.222140960811E-08  0.236822789760E-08
  0.252474976001E-08  0.269161652774E-08  0.286951192040E-08  0.305916484626E-08  0.326135238889E-08
  0.347690299118E-08  0.370669984979E-08  0.395168453396E-08  0.421286084352E-08  0.449129892182E-08
  0.478813964054E-08  0.510459927435E-08  0.544197448437E-08  0.580164763120E-08  0.618509243897E-08
  0.659388003374E-08  0.702968538109E-08  0.749429414907E-08  0.798961002482E-08  0.851766251473E-08
  0.908061526012E-08  0.968077490256E-08  0.103206005351E-07  0.110027137781E-07  0.117299095212E-07
  0.125051673748E-07  0.133316638791E-07  0.142127855193E-07  0.151521426017E-07  0.161535840461E-07
  0.172212131570E-07  0.183594044357E-07  0.195728215052E-07  0.208664362182E-07  0.222455490292E-07
  0.237158107123E-07  0.252832455150E-07  0.269542758415E-07  0.287357485682E-07  0.306349630980E-07
  0.326597012686E-07  0.348182592382E-07  0.371194814777E-07  0.395727970105E-07  0.421882580464E-07
  0.449765811700E-07  0.479491912505E-07  0.511182682540E-07  0.544967971497E-07  0.580986211143E-07
  0.619384982532E-07  0.660321620701E-07  0.703963859337E-07  0.750490518043E-07  0.800092235038E-07
  0.852972248275E-07  0.909347228186E-07  0.969448165470E-07  0.103352131755E-06  0.110182921758E-06
  0.117465175017E-06  0.125228729815E-06  0.133505396520E-06  0.142329087920E-06  0.151735958183E-06
  0.161764550987E-06  0.172455957458E-06  0.183853984527E-06  0.196005334432E-06  0.208959796071E-06
  0.222770449005E-06  0.237493880952E-06  0.253190419643E-06  0.269924380011E-06  0.287764327713E-06
  0.306783360072E-06  0.327059405583E-06  0.348675543215E-06  0.371720342824E-06  0.396288228049E-06
  0.422479863208E-06  0.450402565758E-06  0.480170746010E-06  0.511906375920E-06  0.545739488848E-06
  0.581808712358E-06  0.620261836222E-06  0.661256417977E-06  0.704960428494E-06  0.751552940216E-06
  0.801224860886E-06  0.854179715767E-06  0.910634481558E-06  0.970820475430E-06  0.103498430281E-05
  0.110338886783E-05  0.117631445050E-05  0.125405985517E-05  0.133694363479E-05  0.142530539616E-05
  0.151950719142E-05  0.161993500145E-05  0.172700031746E-05  0.184114182690E-05  0.196282721101E-05
  0.209255506098E-05  0.223085692089E-05  0.237829946559E-05  0.253548682257E-05  0.270306304722E-05
  0.288171476175E-05  0.307217396847E-05  0.327522104902E-05  0.349168796181E-05  0.372246165075E-05
  0.396848767938E-05  0.423077410497E-05  0.451039560889E-05  0.480849789975E-05  0.512630240767E-05
  0.546511128871E-05  0.582631276013E-05  0.621138678810E-05  0.662191115141E-05  0.705956790593E-05
  0.752615027614E-05  0.802357000231E-05  0.855386517302E-05  0.911920857545E-05  0.972191659741E-05
  0.103644587177E-04  0.110494676237E-04  0.117797499974E-04  0.125582980143E-04  0.133883016023E-04
  0.142731615104E-04  0.152165032414E-04  0.162221919050E-04  0.172943480521E-04  0.184373645565E-04
  0.196559246104E-04  0.209550209109E-04  0.223399761128E-04  0.238164646335E-04  0.253905358983E-04
  0.270686391222E-04  0.288576497284E-04  0.307648975124E-04  0.327981966673E-04  0.349658777921E-04
  0.372768220154E-04  0.397404973727E-04  0.423669975874E-04  0.451670834136E-04  0.481522267092E-04
  0.513346574215E-04  0.547274136753E-04  0.583443951694E-04  0.622004201007E-04  0.663112858468E-04
  0.706938336565E-04  0.753660176124E-04  0.803469781474E-04  0.856571204157E-04  0.913181978374E-04
  0.973534011605E-04  0.103787453401E-03  0.110646711050E-03  0.117959271964E-03  0.125755090374E-03
  0.134066099480E-03  0.142926342148E-03  0.152372110216E-03  0.162442092999E-03  0.173177535593E-03
  0.184622407609E-03  0.196823583050E-03  0.209831032033E-03  0.223698025169E-03  0.238481351396E-03
  0.254241550189E-03  0.271043159054E-03  0.288954977340E-03  0.308050347421E-03  0.328407454396E-03
  0.350109645527E-03  0.373245770692E-03  0.397910545249E-03  0.424204936768E-03  0.452236577196E-03
  0.482120202117E-03  0.513978118885E-03  0.547940705501E-03  0.584146942259E-03  0.622744978283E-03
  0.663892735234E-03  0.707758550611E-03  0.754521863207E-03  0.804373943474E-03  0.857518671698E-03
  0.914173367085E-03  0.974569671057E-03  0.103895448825E-02  0.110759098895E-02  0.118075967689E-02
  0.125875952671E-02  0.134190919533E-02  0.143054831230E-02  0.152503885382E-02  0.162576660602E-02
  0.173314272306E-02  0.184760538610E-02  0.196962156945E-02  0.209968892079E-02  0.223833776247E-02
  0.238613322156E-02  0.254367749671E-02  0.271161227014E-02  0.289062127398E-02  0.308143302024E-02
  0.328482370448E-02  0.350162029388E-02  0.373270381057E-02  0.397901282226E-02  0.424154715234E-02
  0.452137182240E-02  0.481962124101E-02  0.513750365279E-02  0.547630586294E-02  0.583739825285E-02
  0.622224010305E-02  0.663238524063E-02  0.706948802887E-02  0.753530971730E-02  0.803172517141E-02
  0.856073000152E-02  0.912444811094E-02  0.972513968432E-02  0.103652096369E-01  0.110472165464E-01
  0.117738820891E-01  0.125481010011E-01  0.133729515873E-01  0.142517067983E-01  0.151878458954E-01
  0.161850667244E-01  0.172472986150E-01  0.183787159224E-01  0.195837522261E-01  0.208671151950E-01
  0.222338021285E-01  0.236891161755E-01  0.252386832285E-01  0.268884694854E-01  0.286447996614E-01
  0.305143758264E-01  0.325042968298E-01  0.346220782656E-01  0.368756729116E-01  0.392734915627E-01
  0.418244241556E-01  0.445378610598E-01  0.474237143822E-01  0.504924391013E-01  0.537550538112E-01
  0.572231608135E-01  0.609089652480E-01  0.648252928979E-01  0.689856062458E-01  0.734040182821E-01
  0.780953034907E-01  0.830749053445E-01  0.883589395405E-01  0.939641920882E-01  0.999081112365E-01
  0.106208792075E+00  0.112884952484E+00  0.119955898930E+00  0.127441480386E+00  0.135362028454E+00
  0.143738281510E+00  0.152591290409E+00  0.161942303023E+00  0.171812624553E+00  0.182223450208E+00
  0.193195666497E+00  0.204749617011E+00  0.216904828151E+00  0.229679689906E+00  0.243091086353E+00
  0.257153970211E+00  0.271880875431E+00  0.287281361513E+00  0.303361383075E+00  0.320122578093E+00
  0.337561468325E+00  0.355668565734E+00  0.374427379280E+00  0.393813317337E+00  0.413792482359E+00
  0.434320356167E+00  0.455340376722E+00  0.476782410350E+00  0.498561127307E+00  0.520574293487E+00
  0.542700996871E+00  0.564799834374E+00  0.586707092774E+00  0.608234966765E+00  0.629169867569E+00
  0.649270886998E+00  0.668262260280E+00  0.685893170041E+00  0.702020771323E+00  0.716548244955E+00
  0.729386535037E+00  0.740455352626E+00  0.749684235890E+00  0.757013583248E+00  0.762395578767E+00
  0.765794986918E+00  0.767189795548E+00  0.766571720299E+00  0.763946557893E+00  0.759334410744E+00
  0.752769766063E+00  0.744301423518E+00  0.733992258882E+00  0.721918781385E+00  0.708170466011E+00
  0.692848828835E+00  0.676066220413E+00  0.657944347289E+00  0.638612543608E+00  0.618205850386E+00
  0.596862984453E+00  0.574724295700E+00  0.551929815141E+00  0.528617486747E+00  0.504921654547E+00
  0.480971848180E+00  0.456891879667E+00  0.432799236645E+00  0.408804737300E+00  0.385012385512E+00
  0.361519396908E+00  0.338416301303E+00
 ae wavefunction
 -0.149505578504E-06 -0.158684962164E-06 -0.168373297542E-06 -0.178601991555E-06 -0.189404259495E-06
 -0.200815239591E-06 -0.212872114973E-06 -0.225614242335E-06 -0.239083289300E-06 -0.253323380194E-06
 -0.268381249976E-06 -0.284306409425E-06 -0.301151318453E-06 -0.318971571749E-06 -0.337826096433E-06
 -0.357777360184E-06 -0.378891594329E-06 -0.401239030194E-06 -0.424894150362E-06 -0.449935956002E-06
 -0.476448250970E-06 -0.504519944331E-06 -0.534245371351E-06 -0.565724635628E-06 -0.599063972816E-06
 -0.634376137337E-06 -0.671780814024E-06 -0.711405056062E-06 -0.753383750890E-06 -0.797860116052E-06
 -0.844986226829E-06 -0.894923577781E-06 -0.947843680388E-06 -0.100392869916E-05 -0.106337212872E-05
 -0.112637951454E-05 -0.119316922014E-05 -0.126397324387E-05 -0.133903808840E-05 -0.141862568647E-05
 -0.150301438641E-05 -0.159250000160E-05 -0.168739692764E-05 -0.178803933181E-05 -0.189478242046E-05
 -0.200800378700E-05 -0.212810484832E-05 -0.225551237492E-05 -0.239068011804E-05 -0.253409054524E-05
 -0.268625668618E-05 -0.284772409959E-05 -0.301907296734E-05 -0.320092032464E-05 -0.339392243478E-05
 -0.359877731756E-05 -0.381622744356E-05 -0.404706260095E-05 -0.429212294947E-05 -0.455230227400E-05
 -0.482855144605E-05 -0.512188211250E-05 -0.543337062324E-05 -0.576416221144E-05 -0.611547544837E-05
 -0.648860698368E-05 -0.688493659535E-05 -0.730593256513E-05 -0.775315740359E-05 -0.822827394462E-05
 -0.873305183585E-05 -0.926937444755E-05 -0.983924623029E-05 -0.104448005461E-04 -0.110883080080E-04
 -0.117721853573E-04 -0.124990049139E-04 -0.132715046373E-04 -0.140925988362E-04 -0.149653895694E-04
 -0.158931787779E-04 -0.168794812068E-04 -0.179280381486E-04 -0.190428320762E-04 -0.202281022179E-04
 -0.214883611287E-04 -0.228284123259E-04 -0.242533690616E-04 -0.257686742900E-04 -0.273801219192E-04
 -0.290938794204E-04 -0.309165118824E-04 -0.328550076061E-04 -0.349168053243E-04 -0.371098231660E-04
 -0.394424894570E-04 -0.419237754863E-04 -0.445632303496E-04 -0.473710180068E-04 -0.503579566881E-04
 -0.535355607934E-04 -0.569160854450E-04 -0.605125738486E-04 -0.643389076442E-04 -0.684098604254E-04
 -0.727411546258E-04 -0.773495219728E-04 -0.822527677340E-04 -0.874698389797E-04 -0.930208971113E-04
 -0.989273949092E-04 -0.105212158377E-03 -0.111899473668E-03 -0.119015179395E-03 -0.126586764657E-03
 -0.134643473107E-03 -0.143216413434E-03 -0.152338676620E-03 -0.162045460402E-03 -0.172374201311E-03
 -0.183364714790E-03 -0.195059343804E-03 -0.207503116468E-03 -0.220743913203E-03 -0.234832643949E-03
 -0.249823436029E-03 -0.265773833248E-03 -0.282745006868E-03 -0.300801979109E-03 -0.320013859892E-03
 -0.340454097516E-03 -0.362200744069E-03 -0.385336736340E-03 -0.409950193082E-03 -0.436134729484E-03
 -0.463989789764E-03 -0.493620998837E-03 -0.525140534019E-03 -0.558667517826E-03 -0.594328432896E-03
 -0.632257560164E-03 -0.672597441425E-03 -0.715499367462E-03 -0.761123892977E-03 -0.809641379569E-03
 -0.861232568073E-03 -0.916089181579E-03 -0.974414560506E-03 -0.103642433113E-02 -0.110234710898E-02
 -0.117242523857E-02 -0.124691557092E-02 -0.132609028037E-02 -0.141023772212E-02 -0.149966333211E-02
 -0.159469057064E-02 -0.169566191115E-02 -0.180293987581E-02 -0.191690811912E-02 -0.203797256104E-02
 -0.216656257086E-02 -0.230313220307E-02 -0.244816148645E-02 -0.260215776718E-02 -0.276565710713E-02
 -0.293922573774E-02 -0.312346157034E-02 -0.331899576294E-02 -0.352649434371E-02 -0.374665989095E-02
 -0.398023326886E-02 -0.422799541841E-02 -0.449076920179E-02 -0.476942129886E-02 -0.506486415317E-02
 -0.537805796491E-02 -0.571001272707E-02 -0.606179030085E-02 -0.643450652543E-02 -0.682933335614E-02
 -0.724750102464E-02 -0.769030021327E-02 -0.815908423491E-02 -0.865527120841E-02 -0.918034621846E-02
 -0.973586344719E-02 -0.103234482636E-01 -0.109447992550E-01 -0.116016901834E-01 -0.122959718471E-01
 -0.130295738269E-01 -0.138045060931E-01 -0.146228604488E-01 -0.154868117802E-01 -0.163986190855E-01
 -0.173606262477E-01 -0.183752625174E-01 -0.194450426662E-01 -0.205725667700E-01 -0.217605195775E-01
 -0.230116694173E-01 -0.243288665916E-01 -0.257150412043E-01 -0.271732003660E-01 -0.287064247146E-01
 -0.303178641899E-01 -0.320107329936E-01 -0.337883036667E-01 -0.356539002106E-01 -0.376108901779E-01
 -0.396626756535E-01 -0.418126830486E-01 -0.440643516250E-01 -0.464211206677E-01 -0.488864152230E-01
 -0.514636303202E-01 -0.541561135946E-01 -0.569671462322E-01 -0.598999221607E-01 -0.629575254130E-01
 -0.661429055974E-01 -0.694588514144E-01 -0.729079621677E-01 -0.764926172291E-01 -0.802149434274E-01
 -0.840767803442E-01 -0.880796435173E-01 -0.922246855679E-01 -0.965126552873E-01 -0.100943854741E+00
 -0.105518094473E+00 -0.110234646909E+00 -0.115092198106E+00 -0.120088798001E+00 -0.125221809374E+00
 -0.130487855753E+00 -0.135882768569E+00 -0.141401533897E+00 -0.147038239216E+00 -0.152786020694E+00
 -0.158637011631E+00 -0.164582292787E+00 -0.170611845514E+00 -0.176714508707E+00 -0.182877940713E+00
 -0.189088587317E+00 -0.195331656726E+00 -0.201591101940E+00 -0.207849609885E+00 -0.214088595278E+00
 -0.220288195401E+00 -0.226427260504E+00 -0.232483334165E+00 -0.238432619600E+00 -0.244249932123E+00
 -0.249908644253E+00 -0.255380636716E+00 -0.260636273506E+00 -0.265644419691E+00 -0.270372514999E+00
 -0.274786704921E+00 -0.278852018095E+00 -0.282532570467E+00 -0.285791777063E+00 -0.288592559769E+00
 -0.290897548715E+00 -0.292669280902E+00 -0.293870401368E+00 -0.294463870774E+00 -0.294413180580E+00
 -0.293682575006E+00 -0.292237277225E+00 -0.290043717060E+00 -0.287069757224E+00 -0.283284915681E+00
 -0.278660582277E+00 -0.273170228174E+00 -0.266789607141E+00 -0.259496948099E+00 -0.251273138730E+00
 -0.242101899860E+00 -0.231969951011E+00 -0.220867166968E+00 -0.208786725926E+00 -0.195725248993E+00
 -0.181682931275E+00 -0.166663663963E+00 -0.150675146803E+00 -0.133728989521E+00 -0.115840800438E+00
 -0.970302597161E-01 -0.773211743078E-01 -0.567415112335E-01 -0.353234059359E-01 -0.131031429397E-01
  0.987889268182E-02  0.335782925032E-01  0.579467272969E-01  0.829320684286E-01  0.108478518682E+00
  0.134526741578E+00  0.161013979601E+00  0.187874157522E+00  0.215037978703E+00  0.242433041097E+00
  0.269984027273E+00  0.297613060501E+00  0.325240366765E+00  0.352785425651E+00  0.380168774783E+00
  0.407314412123E+00  0.434152115511E+00  0.460617977853E+00  0.486650873430E+00  0.512184171176E+00
  0.537136184080E+00  0.561405622018E+00  0.584875060092E+00  0.607419122159E+00  0.628912003350E+00
  0.649231811215E+00  0.668262260280E+00  0.685893170041E+00  0.702020771323E+00  0.716548244955E+00
  0.729386535037E+00  0.740455352626E+00  0.749684235890E+00  0.757013583248E+00  0.762395578767E+00
  0.765794986918E+00  0.767189795548E+00  0.766571720299E+00  0.763946557893E+00  0.759334410744E+00
  0.752769766063E+00  0.744301423518E+00  0.733992258882E+00  0.721918781385E+00  0.708170466011E+00
  0.692848828835E+00  0.676066220413E+00  0.657944347289E+00  0.638612543608E+00  0.618205850386E+00
  0.596862984453E+00  0.574724295700E+00  0.551929815141E+00  0.528617486747E+00  0.504921654547E+00
  0.480971848180E+00  0.456891879667E+00  0.432799236645E+00  0.408804737300E+00  0.385012385512E+00
  0.361519396908E+00  0.338416301303E+00
 pseudo wavefunction
  0.463160176037E-08  0.493771543048E-08  0.526406088730E-08  0.561197529814E-08  0.598288420689E-08
  0.637830737507E-08  0.679986500889E-08  0.724928439786E-08  0.772840699220E-08  0.823919594798E-08
  0.878374417099E-08  0.936428289215E-08  0.998319080980E-08  0.106430038361E-07  0.113464254879E-07
  0.120963379638E-07  0.128958139537E-07  0.137481292293E-07  0.146567760656E-07  0.156254775505E-07
  0.166582028398E-07  0.177591834202E-07  0.189329304476E-07  0.201842532308E-07  0.215182789377E-07
  0.229404736026E-07  0.244566645235E-07  0.260730641382E-07  0.277962954795E-07  0.296334193124E-07
  0.315919630645E-07  0.336799516693E-07  0.359059404476E-07  0.382790501614E-07  0.408090043859E-07
  0.435061693507E-07  0.463815964144E-07  0.494470673461E-07  0.527151426005E-07  0.561992127825E-07
  0.599135535143E-07  0.638733839282E-07  0.680949290251E-07  0.725954861553E-07  0.773934958920E-07
  0.825086175902E-07  0.879618099387E-07  0.937754168357E-07  0.999732589416E-07  0.106580731280E-06
  0.113624907295E-06  0.121134649775E-06  0.129140729122E-06  0.137675949426E-06  0.146775282878E-06
  0.156476013065E-06  0.166817887734E-06  0.177843281655E-06  0.189597370248E-06  0.202128314683E-06
  0.215487459219E-06  0.229729541574E-06  0.244912917217E-06  0.261099798464E-06  0.278356509393E-06
  0.296753757596E-06  0.316366923898E-06  0.337276371220E-06  0.359567773858E-06  0.383332468525E-06
  0.408667828591E-06  0.435677663064E-06  0.464472641930E-06  0.495170749616E-06  0.527897768415E-06
  0.562787793866E-06  0.599983784196E-06  0.639638146074E-06  0.681913359080E-06  0.726982641447E-06
  0.775030659802E-06  0.826254285815E-06  0.880863402860E-06  0.939081765985E-06  0.100114791872E-05
  0.106731617049E-05  0.113785763859E-05  0.121306135910E-05  0.129323547112E-05  0.137870847938E-05
  0.146983060021E-05  0.156697519652E-05  0.167054030760E-05  0.178095028005E-05  0.189865750647E-05
  0.202414427904E-05  0.215792476572E-05  0.230054711691E-05  0.245259571144E-05  0.261469355100E-05
  0.278750481275E-05  0.297173757070E-05  0.316814669693E-05  0.337753695457E-05  0.360076629516E-05
  0.383874937394E-05  0.409246129753E-05  0.436294161924E-05  0.465129859840E-05  0.495871374132E-05
  0.528644664218E-05  0.563584014403E-05  0.600832584076E-05  0.640542994277E-05  0.682877953025E-05
  0.728010921973E-05  0.776126827129E-05  0.827422816543E-05  0.882109068061E-05  0.940409650481E-05
  0.100256344160E-04  0.106882510696E-04  0.113946614323E-04  0.121477599061E-04  0.129506321869E-04
  0.138065679070E-04  0.147190741134E-04  0.156918896362E-04  0.167290004072E-04  0.178346557902E-04
  0.190133859912E-04  0.202700206185E-04  0.216097084696E-04  0.230379386257E-04  0.245605629401E-04
  0.261838200129E-04  0.279143607495E-04  0.297592756084E-04  0.317261236494E-04  0.338229635016E-04
  0.360583863769E-04  0.384415512659E-04  0.409822224585E-04  0.436908095445E-04  0.465784100565E-04
  0.496568549309E-04  0.529387569718E-04  0.564375625180E-04  0.601676065223E-04  0.641441712707E-04
  0.683835489804E-04  0.729031085333E-04  0.777213666180E-04  0.828580635713E-04  0.883342442299E-04
  0.941723441224E-04  0.100396281354E-03  0.107031554561E-03  0.114105347336E-03  0.121646639546E-03
  0.129686326003E-03  0.138257342977E-03  0.147394803055E-03  0.157136138909E-03  0.167521256557E-03
  0.178592698736E-03  0.190395819070E-03  0.202978967730E-03  0.216393689343E-03  0.230694933975E-03
  0.245941282027E-03  0.262195183977E-03  0.279523215937E-03  0.297996352073E-03  0.317690254989E-03
  0.338685585274E-03  0.361068331452E-03  0.384930161694E-03  0.410368798714E-03  0.437488419384E-03
  0.466400080673E-03  0.497222173666E-03  0.530080907483E-03  0.565110825074E-03  0.602455352983E-03
  0.642267387300E-03  0.684709918180E-03  0.729956695451E-03  0.778192938017E-03  0.829616089889E-03
  0.884436625937E-03  0.942878910570E-03  0.100518211283E-02  0.107160118158E-02  0.114240788466E-02
  0.121789191625E-02  0.129836207684E-02  0.138414753049E-02  0.147559914445E-02  0.157309091649E-02
  0.167702149559E-02  0.178781580197E-02  0.190592675307E-02  0.203183710201E-02  0.216606139612E-02
  0.230914806293E-02  0.246168163202E-02  0.262428510133E-02  0.279762245716E-02  0.298240135762E-02
  0.317937599004E-02  0.338935011321E-02  0.361318029619E-02  0.385177936610E-02  0.410612007796E-02
  0.437723902047E-02  0.466624077243E-02  0.497430232542E-02  0.530267778895E-02  0.565270339575E-02
  0.602580282527E-02  0.642349286484E-02  0.684738942885E-02  0.729921395748E-02  0.778080021739E-02
  0.829410152835E-02  0.884119844050E-02  0.942430688857E-02  0.100457868503E-01  0.107081515376E-01
  0.114140771507E-01  0.121664132257E-01  0.129681936089E-01  0.138226480899E-01  0.147332147300E-01
  0.157035529205E-01  0.167375572074E-01  0.178393719218E-01  0.190134066523E-01  0.202643526001E-01
  0.215971998548E-01  0.230172556314E-01  0.245301635060E-01  0.261419236896E-01  0.278589143773E-01
  0.296879142064E-01  0.316361258587E-01  0.337112008345E-01  0.359212654247E-01  0.382749479012E-01
  0.407814069388E-01  0.434503612743E-01  0.462921205991E-01  0.493176176690E-01  0.525384416024E-01
  0.559668723209E-01  0.596159160654E-01  0.634993419026E-01  0.676317191042E-01  0.720284552550E-01
  0.767058349072E-01  0.816810585589E-01  0.869722816830E-01  0.925986534826E-01  0.985803549796E-01
  0.104938635976E+00  0.111695850336E+00  0.118875488957E+00  0.126502209667E+00  0.134601863179E+00
  0.143201514103E+00  0.152329455818E+00  0.162015217885E+00  0.172289564425E+00  0.183184481712E+00
  0.194733152931E+00  0.206969917809E+00  0.219930214486E+00  0.233650500658E+00  0.248168150621E+00
  0.263521324443E+00  0.279748805004E+00  0.296889798128E+00  0.314983690487E+00  0.334069759359E+00
  0.354186827650E+00  0.375372856925E+00  0.397664470481E+00  0.421096397694E+00  0.445700830168E+00
  0.471506679378E+00  0.498538724806E+00  0.526816640805E+00  0.556353889855E+00  0.587156469345E+00
  0.619221498733E+00  0.652535633882E+00  0.687073295700E+00  0.722794700961E+00  0.759643684585E+00
  0.797545304793E+00  0.836403225627E+00  0.876096875606E+00  0.916478387003E+00  0.957369327654E+00
  0.998557246735E+00  0.103979206788E+01  0.108078237776E+01  0.112119167637E+01  0.116063467667E+01
  0.119867376717E+01  0.123481578097E+01  0.126850924898E+01  0.129914235461E+01  0.132604184997E+01
  0.134847324101E+01  0.136564259791E+01  0.137670039784E+01  0.138074785491E+01  0.137684623568E+01
  0.136402969146E+01  0.134132215617E+01  0.130782909146E+01  0.126298238350E+01  0.120636479414E+01
  0.113765870858E+01  0.000000000000E+00  0.000000000000E+00  0.000000000000E+00  0.000000000000E+00
  0.000000000000E+00  0.000000000000E+00  0.000000000000E+00  0.000000000000E+00  0.000000000000E+00
  0.000000000000E+00  0.000000000000E+00  0.000000000000E+00  0.000000000000E+00  0.000000000000E+00
  0.000000000000E+00  0.000000000000E+00  0.000000000000E+00  0.000000000000E+00  0.000000000000E+00
  0.000000000000E+00  0.000000000000E+00  0.000000000000E+00  0.000000000000E+00  0.000000000000E+00
  0.000000000000E+00  0.000000000000E+00  0.000000000000E+00  0.000000000000E+00  0.000000000000E+00
  0.000000000000E+00  0.000000000000E+00
 ae wavefunction
 -0.395087495677E-06 -0.419345212190E-06 -0.444947899326E-06 -0.471978554001E-06 -0.500524952007E-06
 -0.530679950750E-06 -0.562541811554E-06 -0.596214539676E-06 -0.631808247315E-06 -0.669439538824E-06
 -0.709231917505E-06 -0.751316222136E-06 -0.795831084969E-06 -0.842923422321E-06 -0.892748956909E-06
 -0.945472767839E-06 -0.100126988017E-05 -0.106032588949E-05 -0.112283762590E-05 -0.118901386047E-05
 -0.125907605601E-05 -0.133325916655E-05 -0.141181248557E-05 -0.149500055013E-05 -0.158310410209E-05
 -0.167642111003E-05 -0.177526785708E-05 -0.187998009819E-05 -0.199091429145E-05 -0.210844890832E-05
 -0.223298582806E-05 -0.236495182162E-05 -0.250480013103E-05 -0.265301215039E-05 -0.281009921516E-05
 -0.297660450676E-05 -0.315310508009E-05 -0.334021402191E-05 -0.353858274862E-05 -0.374890345266E-05
 -0.397191170687E-05 -0.420838923789E-05 -0.445916687837E-05 -0.472512771032E-05 -0.500721041435E-05
 -0.530641283186E-05 -0.562379576112E-05 -0.596048700069E-05 -0.631768564943E-05 -0.669666669290E-05
 -0.709878588126E-05 -0.752548492710E-05 -0.797829703934E-05 -0.845885281687E-05 -0.896888652411E-05
 -0.951024277270E-05 -0.100848836415E-04 -0.106948962526E-04 -0.113425008416E-04 -0.120300593560E-04
 -0.127600846023E-04 -0.135352499942E-04 -0.143583999319E-04 -0.152325608490E-04 -0.161609529847E-04
 -0.171470029112E-04 -0.181943568783E-04 -0.193068950191E-04 -0.204887464789E-04 -0.217443055210E-04
 -0.230782486783E-04 -0.244955530110E-04 -0.260015155503E-04 -0.276017739933E-04 -0.293023287413E-04
 -0.311095663585E-04 -0.330302845469E-04 -0.350717187333E-04 -0.372415703702E-04 -0.395480370653E-04
 -0.419998446403E-04 -0.446062812814E-04 -0.473772338550E-04 -0.503232265790E-04 -0.534554621811E-04
 -0.567858656904E-04 -0.603271310421E-04 -0.640927706854E-04 -0.680971683503E-04 -0.723556352082E-04
 -0.768844696185E-04 -0.817010206965E-04 -0.868237559489E-04 -0.922723332066E-04 -0.980676771649E-04
 -0.104232060779E-03 -0.110789191851E-03 -0.117764305111E-03 -0.125184260142E-03 -0.133077645516E-03
 -0.141474889521E-03 -0.150408377890E-03 -0.159912578963E-03 -0.170024176742E-03 -0.180782212319E-03
 -0.192228234209E-03 -0.204406458100E-03 -0.217363936632E-03 -0.231150739788E-03 -0.245820146553E-03
 -0.261428848524E-03 -0.278037166186E-03 -0.295709278620E-03 -0.314513467450E-03 -0.334522375867E-03
 -0.355813283651E-03 -0.378468399113E-03 -0.402575168965E-03 -0.428226607205E-03 -0.455521644050E-03
 -0.484565496179E-03 -0.515470059466E-03 -0.548354325502E-03 -0.583344823299E-03 -0.620576087593E-03
 -0.660191155260E-03 -0.702342091446E-03 -0.747190547045E-03 -0.794908349310E-03 -0.845678127422E-03
 -0.899693974900E-03 -0.957162150923E-03 -0.101830182262E-02 -0.108334585054E-02 -0.115254161965E-02
 -0.122615191812E-02 -0.130445586655E-02 -0.138774990018E-02 -0.147634880674E-02 -0.157058682281E-02
 -0.167081879158E-02 -0.177742138502E-02 -0.189079439368E-02 -0.201136208714E-02 -0.213957464868E-02
 -0.227590968744E-02 -0.242087383161E-02 -0.257500440633E-02 -0.273887119989E-02 -0.291307832205E-02
 -0.309826615832E-02 -0.329511342400E-02 -0.350433932193E-02 -0.372670580799E-02 -0.396301996804E-02
 -0.421413651052E-02 -0.448096037839E-02 -0.476444948430E-02 -0.506561757267E-02 -0.538553721242E-02
 -0.572534292352E-02 -0.608623444087E-02 -0.646948011814E-02 -0.687642047463E-02 -0.730847188694E-02
 -0.776713042778E-02 -0.825397585287E-02 -0.877067573702E-02 -0.931898975921E-02 -0.990077413628E-02
 -0.105179862035E-01 -0.111726891395E-01 -0.118670568327E-01 -0.126033788831E-01 -0.133840657346E-01
 -0.142116539295E-01 -0.150888114761E-01 -0.160183433184E-01 -0.170031968939E-01 -0.180464677653E-01
 -0.191514053076E-01 -0.203214184297E-01 -0.215600813081E-01 -0.228711391050E-01 -0.242585136414E-01
 -0.257263089925E-01 -0.272788169650E-01 -0.289205224175E-01 -0.306561083758E-01 -0.324904608909E-01
 -0.344286735854E-01 -0.364760518237E-01 -0.386381164385E-01 -0.409206069405E-01 -0.433294841273E-01
 -0.458709320066E-01 -0.485513589357E-01 -0.513773978770E-01 -0.543559056556E-01 -0.574939611030E-01
 -0.607988619576E-01 -0.642781203868E-01 -0.679394569858E-01 -0.717907930994E-01 -0.758402413043E-01
 -0.800960938816E-01 -0.845668090979E-01 -0.892609951079E-01 -0.941873912829E-01 -0.993548467592E-01
 -0.104772295999E+00 -0.110448731145E+00 -0.116393170948E+00 -0.122614626050E+00 -0.129122060380E+00
 -0.135924348454E+00 -0.143030228350E+00 -0.150448250133E+00 -0.158186719516E+00 -0.166253636574E+00
 -0.174656629298E+00 -0.183402881835E+00 -0.192499057260E+00 -0.201951214758E+00 -0.211764721124E+00
 -0.221944156519E+00 -0.232493214475E+00 -0.243414596172E+00 -0.254709899066E+00 -0.266379500004E+00
 -0.278422433025E+00 -0.290836262116E+00 -0.303616949252E+00 -0.316758718164E+00 -0.330253914328E+00
 -0.344092861831E+00 -0.358263717857E+00 -0.372752325714E+00 -0.387542067518E+00 -0.402613717880E+00
 -0.417945300241E+00 -0.433511947830E+00 -0.449285771635E+00 -0.465235738087E+00 -0.481327559497E+00
 -0.497523600217E+00 -0.513782800973E+00 -0.530060622440E+00 -0.546309006507E+00 -0.562476349898E+00
 -0.578507480274E+00 -0.594343621055E+00 -0.609922330287E+00 -0.625177403342E+00 -0.640038740365E+00
 -0.654432195949E+00 -0.668279446244E+00 -0.681497921511E+00 -0.694000853358E+00 -0.705697470899E+00
 -0.716493350426E+00 -0.726290889230E+00 -0.734989852743E+00 -0.742487945416E+00 -0.748681375632E+00
 -0.753465409210E+00 -0.756734921799E+00 -0.758384964776E+00 -0.758311355541E+00 -0.756411296119E+00
 -0.752584018754E+00 -0.746731452950E+00 -0.738758907879E+00 -0.728575763692E+00 -0.716096166836E+00
 -0.701239726002E+00 -0.683932206477E+00 -0.664106222187E+00 -0.641701925563E+00 -0.616667696673E+00
 -0.588960832710E+00 -0.558548240820E+00 -0.525407135788E+00 -0.489525745869E+00 -0.450904028002E+00
 -0.409554394543E+00 -0.365502451437E+00 -0.318787747346E+00 -0.269464530914E+00 -0.217602512063E+00
 -0.163287620933E+00 -0.106622756777E+00 -0.477285177732E-01  0.132560971019E-01  0.761730217761E-01
  0.140844496637E+00  0.207072480970E+00  0.274638096398E+00  0.343301086073E+00  0.412799268790E+00
  0.482847966898E+00  0.553139395806E+00  0.623342025311E+00  0.693099962183E+00  0.762032461601E+00
  0.829733755030E+00  0.895773484653E+00  0.959698154917E+00  0.102103410113E+01  0.107929236882E+01
  0.113397521983E+01  0.118458225004E+01  0.123061152390E+01  0.127155013391E+01  0.130685361516E+01
  0.133592472062E+01  0.135810794983E+01  0.137270601259E+01  0.137900806326E+01  0.137631575972E+01
  0.136396165408E+01  0.134132215617E+01  0.130782909146E+01  0.126298238350E+01  0.120636479414E+01
  0.113765870858E+01  0.000000000000E+00  0.000000000000E+00  0.000000000000E+00  0.000000000000E+00
  0.000000000000E+00  0.000000000000E+00  0.000000000000E+00  0.000000000000E+00  0.000000000000E+00
  0.000000000000E+00  0.000000000000E+00  0.000000000000E+00  0.000000000000E+00  0.000000000000E+00
  0.000000000000E+00  0.000000000000E+00  0.000000000000E+00  0.000000000000E+00  0.000000000000E+00
  0.000000000000E+00  0.000000000000E+00  0.000000000000E+00  0.000000000000E+00  0.000000000000E+00
  0.000000000000E+00  0.000000000000E+00  0.000000000000E+00  0.000000000000E+00  0.000000000000E+00
  0.000000000000E+00  0.000000000000E+00
 End of Dataset
  PAW_PBE Ga 08Apr2002                   
   3.00000000000000     
 parameters from PSCTR are:
   VRHFIN =Ga: s2p1
   LEXCH  = PE
   EATOM  =    58.8688 eV,    4.3267 Ry

   TITEL  = PAW_PBE Ga 08Apr2002
   LULTRA =        F    use ultrasoft PP ?
   IUNSCR =        1    unscreen: 0-lin 1-nonlin 2-no
   RPACOR =    2.170    partial core radius
   POMASS =   69.723; ZVAL   =    3.000    mass and valenz
   RCORE  =    2.600    outmost cutoff radius
   RWIGS  =    2.650; RWIGS  =    1.402    wigner-seitz radius (au A)
   ENMAX  =  134.678; ENMIN  =  101.009 eV
   ICORE  =        3    local potential
   LCOR   =        T    correct aug charges
   LPAW   =        T    paw PP
   EAUG   =  320.264
   DEXC   =    0.000
   RMAX   =    2.658    core radius for proj-oper
   RAUG   =    1.300    factor for augmentation sphere
   RDEP   =    2.684    radius for radial grids
   RDEPT  =    2.308    core radius for aug-charge
 
   Atomic configuration
   10 entries
     n  l   j            E        occ.
     1  0  0.50    -10228.7830   2.0000
     2  0  0.50     -1262.1604   2.0000
     2  1  1.50     -1098.6333   6.0000
     3  0  0.50      -148.1110   2.0000
     3  1  1.50       -98.8436   6.0000
     3  2  2.50       -19.1549  10.0000
     4  0  0.50        -8.9483   2.0000
     4  1  0.50        -2.5791   1.0000
     4  2  1.50         5.4423   0.0000
     4  3  2.50        -2.7416   0.0000
   Description
     l       E           TYP  RCUT    TYP  RCUT
     0     -8.9483097     23  2.600
     0     -5.8232215     23  2.600
     1     -2.5790793     23  2.600
     1      5.2230115     23  2.600
     2      1.3605826     23  2.600
     3     -1.3605826      7  2.600
   Error from kinetic energy argument (eV)
   NDATA  =      100
   STEP   =   20.000   1.050
  4.54      3.98      3.73      3.25      3.04      2.64      2.29      2.13
  1.85      1.60      1.48      1.28      1.10     0.946     0.812     0.697
 0.598     0.512     0.439     0.347     0.297     0.254     0.201     0.171
 0.146     0.115     0.903E-01 0.768E-01 0.600E-01 0.468E-01 0.363E-01 0.281E-01
 0.216E-01 0.165E-01 0.125E-01 0.944E-02 0.643E-02 0.480E-02 0.326E-02 0.246E-02
 0.173E-02 0.129E-02 0.103E-02 0.881E-03 0.799E-03 0.748E-03 0.705E-03 0.647E-03
 0.593E-03 0.515E-03 0.433E-03 0.370E-03 0.301E-03 0.245E-03 0.199E-03 0.174E-03
 0.159E-03 0.148E-03 0.138E-03 0.126E-03 0.112E-03 0.961E-04 0.810E-04 0.665E-04
 0.579E-04 0.517E-04 0.480E-04 0.448E-04 0.403E-04 0.354E-04 0.296E-04 0.249E-04
 0.217E-04 0.199E-04 0.185E-04 0.170E-04 0.148E-04 0.125E-04 0.105E-04 0.949E-05
 0.881E-05 0.805E-05 0.703E-05 0.588E-05 0.509E-05 0.468E-05 0.433E-05 0.379E-05
 0.320E-05 0.279E-05 0.257E-05 0.236E-05 0.201E-05 0.172E-05 0.155E-05 0.143E-05
 0.124E-05 0.106E-05 0.959E-06 0.879E-06
END of PSCTR-controll parameters
 local part
   71.8095875659991     
  0.59460173E+02  0.59457037E+02  0.59456335E+02  0.59455101E+02  0.59453238E+02
  0.59450605E+02  0.59447021E+02  0.59442258E+02  0.59436042E+02  0.59428052E+02
  0.59417922E+02  0.59405242E+02  0.59389560E+02  0.59370388E+02  0.59347205E+02
  0.59319462E+02  0.59286587E+02  0.59247988E+02  0.59203060E+02  0.59151184E+02
  0.59091735E+02  0.59024079E+02  0.58947580E+02  0.58861598E+02  0.58765495E+02
  0.58658634E+02  0.58540384E+02  0.58410120E+02  0.58267230E+02  0.58111116E+02
  0.57941195E+02  0.57756904E+02  0.57557704E+02  0.57343079E+02  0.57112540E+02
  0.56865626E+02  0.56601906E+02  0.56320981E+02  0.56022482E+02  0.55706077E+02
  0.55371469E+02  0.55018396E+02  0.54646638E+02  0.54256012E+02  0.53846378E+02
  0.53417637E+02  0.52969733E+02  0.52502656E+02  0.52016439E+02  0.51511159E+02
  0.50986941E+02  0.50443952E+02  0.49882407E+02  0.49302566E+02  0.48704734E+02
  0.48089263E+02  0.47456550E+02  0.46807036E+02  0.46141210E+02  0.45459602E+02
  0.44762788E+02  0.44051382E+02  0.43326045E+02  0.42587473E+02  0.41836402E+02
  0.41073606E+02  0.40299890E+02  0.39516097E+02  0.38723099E+02  0.37921796E+02
  0.37113118E+02  0.36298017E+02  0.35477470E+02  0.34652471E+02  0.33824032E+02
  0.32993180E+02  0.32160951E+02  0.31328389E+02  0.30496545E+02  0.29666470E+02
  0.28839213E+02  0.28015820E+02  0.27197327E+02  0.26384762E+02  0.25579137E+02
  0.24781447E+02  0.23992665E+02  0.23213743E+02  0.22445605E+02  0.21689144E+02
  0.20945222E+02  0.20214664E+02  0.19498258E+02  0.18796751E+02  0.18110847E+02
  0.17441204E+02  0.16788436E+02  0.16153104E+02  0.15535723E+02  0.14936751E+02
  0.14356596E+02  0.13795613E+02  0.13254098E+02  0.12732294E+02  0.12230387E+02
  0.11748509E+02  0.11286732E+02  0.10845076E+02  0.10423506E+02  0.10021931E+02
  0.96402084E+01  0.92781438E+01  0.89354924E+01  0.86119611E+01  0.83072099E+01
  0.80208544E+01  0.77524677E+01  0.75015829E+01  0.72676958E+01  0.70502675E+01
  0.68487270E+01  0.66624749E+01  0.64908854E+01  0.63333102E+01  0.61890813E+01
  0.60575142E+01  0.59379109E+01  0.58295635E+01  0.57317570E+01  0.56437727E+01
  0.55648914E+01  0.54943960E+01  0.54315751E+01  0.53757258E+01  0.53261563E+01
  0.52821888E+01  0.52431620E+01  0.52084335E+01  0.51773823E+01  0.51494104E+01
  0.51239451E+01  0.51004408E+01  0.50783804E+01  0.50572766E+01  0.50366734E+01
  0.50161469E+01  0.49953063E+01  0.49737943E+01  0.49512877E+01  0.49274975E+01
  0.49021688E+01  0.48750809E+01  0.48460468E+01  0.48149125E+01  0.47815564E+01
  0.47458885E+01  0.47078492E+01  0.46674083E+01  0.46245638E+01  0.45793400E+01
  0.45317868E+01  0.44819771E+01  0.44300060E+01  0.43759883E+01  0.43200570E+01
  0.42623613E+01  0.42030645E+01  0.41423426E+01  0.40803814E+01  0.40173755E+01
  0.39535257E+01  0.38890376E+01  0.38241193E+01  0.37589799E+01  0.36938278E+01
  0.36288685E+01  0.35643038E+01  0.35003296E+01  0.34371348E+01  0.33749000E+01
  0.33137962E+01  0.32539836E+01  0.31956111E+01  0.31388149E+01  0.30837184E+01
  0.30304309E+01  0.29790479E+01  0.29296503E+01  0.28823043E+01  0.28370612E+01
  0.27939576E+01  0.27530156E+01  0.27142426E+01  0.26776322E+01  0.26431643E+01
  0.26108058E+01  0.25805112E+01  0.25522233E+01  0.25258742E+01  0.25013858E+01
  0.24786709E+01  0.24576341E+01  0.24381728E+01  0.24201783E+01  0.24035364E+01
  0.23881289E+01  0.23738347E+01  0.23605301E+01  0.23480908E+01  0.23363923E+01
  0.23253108E+01  0.23147246E+01  0.23045147E+01  0.22945658E+01  0.22847666E+01
  0.22750114E+01  0.22651999E+01  0.22552382E+01  0.22450396E+01  0.22345244E+01
  0.22236209E+01  0.22122652E+01  0.22004019E+01  0.21879842E+01  0.21749737E+01
  0.21613408E+01  0.21470641E+01  0.21321310E+01  0.21165371E+01  0.21002857E+01
  0.20833880E+01  0.20658624E+01  0.20477344E+01  0.20290356E+01  0.20098038E+01
  0.19900820E+01  0.19699184E+01  0.19493650E+01  0.19284779E+01  0.19073160E+01
  0.18859406E+01  0.18644149E+01  0.18428032E+01  0.18211700E+01  0.17995803E+01
  0.17780978E+01  0.17567855E+01  0.17357041E+01  0.17149123E+01  0.16944662E+01
  0.16744183E+01  0.16548179E+01  0.16357101E+01  0.16171359E+01  0.15991315E+01
  0.15817287E+01  0.15649542E+01  0.15488295E+01  0.15333712E+01  0.15185907E+01
  0.15044942E+01  0.14910828E+01  0.14783527E+01  0.14662954E+01  0.14548977E+01
  0.14441419E+01  0.14340063E+01  0.14244653E+01  0.14154896E+01  0.14070469E+01
  0.13991018E+01  0.13916165E+01  0.13845512E+01  0.13778643E+01  0.13715129E+01
  0.13654532E+01  0.13596410E+01  0.13540318E+01  0.13485816E+01  0.13432471E+01
  0.13379857E+01  0.13327565E+01  0.13275202E+01  0.13222392E+01  0.13168786E+01
  0.13114056E+01  0.13057904E+01  0.13000061E+01  0.12940288E+01  0.12878379E+01
  0.12814160E+01  0.12747492E+01  0.12678271E+01  0.12606423E+01  0.12531912E+01
  0.12454734E+01  0.12374916E+01  0.12292518E+01  0.12207627E+01  0.12120362E+01
  0.12030866E+01  0.11939307E+01  0.11845875E+01  0.11750779E+01  0.11654248E+01
  0.11556523E+01  0.11457858E+01  0.11358515E+01  0.11258765E+01  0.11158881E+01
  0.11059137E+01  0.10959806E+01  0.10861158E+01  0.10763455E+01  0.10666952E+01
  0.10571889E+01  0.10478499E+01  0.10386994E+01  0.10297574E+01  0.10210417E+01
  0.10125683E+01  0.10043511E+01  0.99640197E+00  0.98873027E+00  0.98134329E+00
  0.97424595E+00  0.96744091E+00  0.96092856E+00  0.95470703E+00  0.94877231E+00
  0.94311827E+00  0.93773679E+00  0.93261785E+00  0.92774966E+00  0.92311885E+00
  0.91871054E+00  0.91450860E+00  0.91049574E+00  0.90665379E+00  0.90296379E+00
  0.89940624E+00  0.89596128E+00  0.89260887E+00  0.88932896E+00  0.88610168E+00
  0.88290755E+00  0.87972760E+00  0.87654356E+00  0.87333801E+00  0.87009454E+00
  0.86679786E+00  0.86343391E+00  0.85999001E+00  0.85645490E+00  0.85281883E+00
  0.84907363E+00  0.84521270E+00  0.84123108E+00  0.83712544E+00  0.83289408E+00
  0.82853690E+00  0.82405536E+00  0.81945246E+00  0.81473265E+00  0.80990178E+00
  0.80496698E+00  0.79993660E+00  0.79482008E+00  0.78962780E+00  0.78437103E+00
  0.77906173E+00  0.77371244E+00  0.76833615E+00  0.76294618E+00  0.75755599E+00
  0.75217912E+00  0.74682898E+00  0.74151878E+00  0.73626139E+00  0.73106920E+00
  0.72595401E+00  0.72092695E+00  0.71599833E+00  0.71117761E+00  0.70647326E+00
  0.70189276E+00  0.69744247E+00  0.69312767E+00  0.68895246E+00  0.68491978E+00
  0.68103141E+00  0.67728792E+00  0.67368875E+00  0.67023217E+00  0.66691537E+00
  0.66373445E+00  0.66068453E+00  0.65775974E+00  0.65495339E+00  0.65225795E+00
  0.64966520E+00  0.64716633E+00  0.64475197E+00  0.64241239E+00  0.64013748E+00
  0.63791696E+00  0.63574042E+00  0.63359743E+00  0.63147766E+00  0.62937093E+00
  0.62726736E+00  0.62515743E+00  0.62303208E+00  0.62088276E+00  0.61870155E+00
  0.61648122E+00  0.61421523E+00  0.61189787E+00  0.60952423E+00  0.60709025E+00
  0.60459275E+00  0.60202946E+00  0.59939897E+00  0.59670078E+00  0.59393528E+00
  0.59110371E+00  0.58820815E+00  0.58525148E+00  0.58223734E+00  0.57917009E+00
  0.57605472E+00  0.57289684E+00  0.56970256E+00  0.56647844E+00  0.56323142E+00
  0.55996872E+00  0.55669780E+00  0.55342625E+00  0.55016171E+00  0.54691183E+00
  0.54368415E+00  0.54048606E+00  0.53732470E+00  0.53420691E+00  0.53113915E+00
  0.52812744E+00  0.52517731E+00  0.52229376E+00  0.51948117E+00  0.51674333E+00
  0.51408336E+00  0.51150369E+00  0.50900610E+00  0.50659164E+00  0.50426068E+00
  0.50201288E+00  0.49984723E+00  0.49776204E+00  0.49575499E+00  0.49382314E+00
  0.49196295E+00  0.49017037E+00  0.48844086E+00  0.48676941E+00  0.48515066E+00
  0.48357891E+00  0.48204820E+00  0.48055239E+00  0.47908518E+00  0.47764019E+00
  0.47621104E+00  0.47479140E+00  0.47337504E+00  0.47195591E+00  0.47052818E+00
  0.46908629E+00  0.46762503E+00  0.46613957E+00  0.46462551E+00  0.46307891E+00
  0.46149634E+00  0.45987488E+00  0.45821217E+00  0.45650641E+00  0.45475637E+00
  0.45296140E+00  0.45112142E+00  0.44923692E+00  0.44730895E+00  0.44533909E+00
  0.44332945E+00  0.44128265E+00  0.43920174E+00  0.43709021E+00  0.43495194E+00
  0.43279114E+00  0.43061232E+00  0.42842022E+00  0.42621977E+00  0.42401606E+00
  0.42181423E+00  0.41961948E+00  0.41743698E+00  0.41527182E+00  0.41312899E+00
  0.41101330E+00  0.40892936E+00  0.40688148E+00  0.40487371E+00  0.40290973E+00
  0.40099284E+00  0.39912594E+00  0.39731149E+00  0.39555149E+00  0.39384749E+00
  0.39220052E+00  0.39061116E+00  0.38907948E+00  0.38760506E+00  0.38618703E+00
  0.38482402E+00  0.38351423E+00  0.38225542E+00  0.38104495E+00  0.37987979E+00
  0.37875656E+00  0.37767160E+00  0.37662095E+00  0.37560044E+00  0.37460570E+00
  0.37363224E+00  0.37267545E+00  0.37173071E+00  0.37079335E+00  0.36985877E+00
  0.36892245E+00  0.36797997E+00  0.36702712E+00  0.36605985E+00  0.36507440E+00
  0.36406726E+00  0.36303526E+00  0.36197555E+00  0.36088566E+00  0.35976353E+00
  0.35860747E+00  0.35741624E+00  0.35618901E+00  0.35492538E+00  0.35362539E+00
  0.35228949E+00  0.35091857E+00  0.34951389E+00  0.34807713E+00  0.34661034E+00
  0.34511592E+00  0.34359659E+00  0.34205535E+00  0.34049549E+00  0.33892051E+00
  0.33733409E+00  0.33574007E+00  0.33414240E+00  0.33254511E+00  0.33095223E+00
  0.32936781E+00  0.32779584E+00  0.32624023E+00  0.32470477E+00  0.32319307E+00
  0.32170856E+00  0.32025446E+00  0.31883371E+00  0.31744895E+00  0.31610254E+00
  0.31479649E+00  0.31353246E+00  0.31231174E+00  0.31113525E+00  0.31000354E+00
  0.30891677E+00  0.30787472E+00  0.30687679E+00  0.30592202E+00  0.30500907E+00
  0.30413630E+00  0.30330169E+00  0.30250294E+00  0.30173747E+00  0.30100244E+00
  0.30029477E+00  0.29961121E+00  0.29894831E+00  0.29830254E+00  0.29767025E+00
  0.29704774E+00  0.29643128E+00  0.29581717E+00  0.29520174E+00  0.29458143E+00
  0.29395275E+00  0.29331240E+00  0.29265724E+00  0.29198434E+00  0.29129101E+00
  0.29057480E+00  0.28983357E+00  0.28906548E+00  0.28826899E+00  0.28744289E+00
  0.28658632E+00  0.28569875E+00  0.28478001E+00  0.28383026E+00  0.28284999E+00
  0.28184003E+00  0.28080155E+00  0.27973600E+00  0.27864514E+00  0.27753100E+00
  0.27639588E+00  0.27524229E+00  0.27407294E+00  0.27289074E+00  0.27169872E+00
  0.27050003E+00  0.26929791E+00  0.26809564E+00  0.26689653E+00  0.26570385E+00
  0.26452087E+00  0.26335076E+00  0.26219657E+00  0.26106127E+00  0.25994761E+00
  0.25885820E+00  0.25779542E+00  0.25676141E+00  0.25575806E+00  0.25478700E+00
  0.25384957E+00  0.25294682E+00  0.25207948E+00  0.25124800E+00  0.25045252E+00
  0.24969284E+00  0.24896850E+00  0.24827871E+00  0.24762242E+00  0.24699827E+00
  0.24640465E+00  0.24583972E+00  0.24530139E+00  0.24478735E+00  0.24429515E+00
  0.24382213E+00  0.24336554E+00  0.24292251E+00  0.24249009E+00  0.24206529E+00
  0.24164510E+00  0.24122650E+00  0.24080654E+00  0.24038231E+00  0.23995099E+00
  0.23950987E+00  0.23905641E+00  0.23858820E+00  0.23810304E+00  0.23759893E+00
  0.23707410E+00  0.23652700E+00  0.23595637E+00  0.23536117E+00  0.23474067E+00
  0.23409439E+00  0.23342213E+00  0.23272397E+00  0.23200026E+00  0.23125162E+00
  0.23047892E+00  0.22968330E+00  0.22886612E+00  0.22802898E+00  0.22717368E+00
  0.22630222E+00  0.22541674E+00  0.22451955E+00  0.22361307E+00  0.22269983E+00
  0.22178241E+00  0.22086345E+00  0.21994561E+00  0.21903154E+00  0.21812388E+00
  0.21722519E+00  0.21633797E+00  0.21546463E+00  0.21460744E+00  0.21376853E+00
  0.21294987E+00  0.21215325E+00  0.21138024E+00  0.21063224E+00  0.20991038E+00
  0.20921559E+00  0.20854854E+00  0.20790968E+00  0.20729920E+00  0.20671704E+00
  0.20616291E+00  0.20563628E+00  0.20513637E+00  0.20466219E+00  0.20421254E+00
  0.20378601E+00  0.20338099E+00  0.20299572E+00  0.20262829E+00  0.20227665E+00
  0.20193862E+00  0.20161196E+00  0.20129436E+00  0.20098344E+00  0.20067683E+00
  0.20037213E+00  0.20006698E+00  0.19975904E+00  0.19944606E+00  0.19912587E+00
  0.19879639E+00  0.19845568E+00  0.19810193E+00  0.19773350E+00  0.19734893E+00
  0.19694692E+00  0.19652640E+00  0.19608648E+00  0.19562650E+00  0.19514600E+00
  0.19464475E+00  0.19412273E+00  0.19358013E+00  0.19301737E+00  0.19243507E+00
  0.19183404E+00  0.19121531E+00  0.19058007E+00  0.18992969E+00  0.18926567E+00
  0.18858968E+00  0.18790348E+00  0.18720896E+00  0.18650807E+00  0.18580283E+00
  0.18509529E+00  0.18438756E+00  0.18368172E+00  0.18297984E+00  0.18228397E+00
  0.18159609E+00  0.18091812E+00  0.18025187E+00  0.17959907E+00  0.17896131E+00
  0.17834003E+00  0.17773653E+00  0.17715196E+00  0.17658728E+00  0.17604326E+00
  0.17552051E+00  0.17501944E+00  0.17454027E+00  0.17408301E+00  0.17364751E+00
  0.17323342E+00  0.17284019E+00  0.17246710E+00  0.17211327E+00  0.17177766E+00
  0.17145905E+00  0.17115613E+00  0.17086741E+00  0.17059136E+00  0.17032629E+00
  0.17007049E+00  0.16982216E+00  0.16957948E+00  0.16934059E+00  0.16910363E+00
  0.16886675E+00  0.16862814E+00  0.16838602E+00  0.16813869E+00  0.16788449E+00
  0.16762191E+00  0.16734950E+00  0.16706596E+00  0.16677010E+00  0.16646091E+00
  0.16613749E+00  0.16579911E+00  0.16544523E+00  0.16507545E+00  0.16468954E+00
  0.16428745E+00  0.16386930E+00  0.16343536E+00  0.16298608E+00  0.16252206E+00
  0.16204406E+00  0.16155298E+00  0.16104985E+00  0.16053581E+00  0.16001214E+00
  0.15948019E+00  0.15894140E+00  0.15839727E+00  0.15784936E+00  0.15729927E+00
  0.15674860E+00  0.15619898E+00  0.15565202E+00  0.15510931E+00  0.15457239E+00
  0.15404276E+00  0.15352184E+00  0.15301097E+00  0.15251141E+00  0.15202429E+00
  0.15155064E+00  0.15109136E+00  0.15064721E+00  0.15021882E+00  0.14980667E+00
  0.14941110E+00  0.14903230E+00  0.14867031E+00  0.14832501E+00  0.14799616E+00
  0.14768335E+00  0.14738604E+00  0.14710356E+00  0.14683512E+00  0.14657978E+00
  0.14633654E+00  0.14610427E+00  0.14588177E+00  0.14566775E+00  0.14546089E+00
  0.14525981E+00  0.14506310E+00  0.14486931E+00  0.14467701E+00  0.14448478E+00
  0.14429121E+00  0.14409491E+00  0.14389457E+00  0.14368892E+00  0.14347676E+00
  0.14325698E+00  0.14302858E+00  0.14279064E+00  0.14254235E+00  0.14228304E+00
  0.14201214E+00  0.14172922E+00  0.14143398E+00  0.14112625E+00  0.14080598E+00
  0.14047327E+00  0.14012834E+00  0.13977154E+00  0.13940333E+00  0.13902431E+00
  0.13863519E+00  0.13823675E+00  0.13782991E+00  0.13741565E+00  0.13699502E+00
  0.13656914E+00  0.13613919E+00  0.13570637E+00  0.13527192E+00  0.13483711E+00
  0.13440318E+00  0.13397138E+00  0.13354296E+00  0.13311910E+00  0.13270096E+00
  0.13228966E+00  0.13188621E+00  0.13149159E+00  0.13110668E+00  0.13073225E+00
  0.13036901E+00  0.13001753E+00  0.12967828E+00  0.12935164E+00  0.12903784E+00
  0.12873702E+00  0.12844920E+00  0.12817428E+00  0.12791204E+00  0.12766215E+00
  0.12742418E+00  0.12719760E+00  0.12698175E+00  0.12677593E+00  0.12657930E+00
  0.12639100E+00  0.12621008E+00  0.12603552E+00  0.12586628E+00  0.12570127E+00
  0.12553940E+00  0.12537955E+00  0.12522058E+00  0.12506138E+00  0.12490086E+00
  0.12473796E+00  0.12457163E+00  0.12440090E+00  0.12422486E+00  0.12404265E+00
  0.12385348E+00  0.12365667E+00  0.12345160E+00  0.12323777E+00  0.12301475E+00
  0.12278223E+00  0.12253999E+00  0.12228793E+00  0.12202603E+00  0.12175439E+00
  0.12147322E+00  0.12118279E+00  0.12088352E+00  0.12057588E+00  0.12026045E+00
  0.11993788E+00  0.11960888E+00  0.11927426E+00  0.11893486E+00  0.11859156E+00
  0.11824530E+00  0.11789703E+00  0.11754774E+00  0.11719842E+00  0.11685005E+00
  0.11650363E+00  0.11616010E+00  0.11582042E+00  0.11548547E+00  0.11515612E+00
  0.11483317E+00  0.11451736E+00  0.11420936E+00  0.11390978E+00  0.11361913E+00
  0.11333785E+00  0.11306629E+00  0.11280472E+00  0.11255329E+00  0.11231210E+00
  0.11208111E+00  0.11186024E+00  0.11164929E+00  0.11144796E+00  0.11125590E+00
  0.11107265E+00  0.11089769E+00  0.11073042E+00  0.11057018E+00  0.11041625E+00
  0.11026788E+00  0.11012425E+00  0.10998452E+00  0.10984784E+00  0.10971332E+00
  0.10958007E+00  0.10944720E+00  0.10931384E+00  0.10917912E+00  0.10904220E+00
  0.10890229E+00  0.10875861E+00  0.10861045E+00  0.10845716E+00  0.10829813E+00
  0.10813284E+00  0.10796084E+00  0.10778173E+00  0.10759521E+00  0.10740105E+00
  0.10719912E+00  0.10698935E+00  0.10677177E+00  0.10654647E+00  0.10631365E+00
 gradient corrections used for XC
           5
 core charge-density (partial)
  0.23237125E+01  0.23225924E+01  0.23192356E+01  0.23136526E+01  0.23058609E+01
  0.22958847E+01  0.22837551E+01  0.22695096E+01  0.22531917E+01  0.22348514E+01
  0.22145439E+01  0.21923302E+01  0.21682760E+01  0.21424519E+01  0.21149324E+01
  0.20857963E+01  0.20551254E+01  0.20230048E+01  0.19895219E+01  0.19547665E+01
  0.19188297E+01  0.18818042E+01  0.18437833E+01  0.18048610E+01  0.17651311E+01
  0.17246870E+01  0.16836218E+01  0.16420270E+01  0.15999932E+01  0.15576092E+01
  0.15149617E+01  0.14721354E+01  0.14292126E+01  0.13862728E+01  0.13433929E+01
  0.13006466E+01  0.12581049E+01  0.12158350E+01  0.11739014E+01  0.11323648E+01
  0.10912826E+01  0.10507087E+01  0.10106936E+01  0.97128418E+00  0.93252385E+00
  0.89445260E+00  0.85710701E+00  0.82052024E+00  0.78472219E+00  0.74973948E+00
  0.71559560E+00  0.68231094E+00  0.64990294E+00  0.61838613E+00  0.58777229E+00
  0.55807051E+00  0.52928733E+00  0.50142686E+00  0.47449088E+00  0.44847894E+00
  0.42338852E+00  0.39921512E+00  0.37595237E+00  0.35359220E+00  0.33212488E+00
  0.31153918E+00  0.29182248E+00  0.27296088E+00  0.25493929E+00  0.23774156E+00
  0.22135057E+00  0.20574832E+00  0.19091604E+00  0.17683429E+00  0.16348303E+00
  0.15084172E+00  0.13888941E+00  0.12760478E+00  0.11696627E+00  0.10695212E+00
  0.97540440E-01  0.88709281E-01  0.80436695E-01  0.72700793E-01  0.65479797E-01
  0.58752092E-01  0.52496273E-01  0.46691189E-01  0.41315985E-01  0.36350136E-01
  0.31773484E-01  0.27566267E-01  0.23709151E-01  0.20183250E-01  0.16970155E-01
  0.14051946E-01  0.11411217E-01  0.90310870E-02  0.68952111E-02  0.49877941E-02
  0.32935965E-02  0.17979404E-02  0.48671422E-03 -0.65362590E-03 -0.16360555E-02
 -0.24729834E-02 -0.31762542E-02 -0.37571534E-02 -0.42264124E-02 -0.45942161E-02
 -0.48702111E-02 -0.50635148E-02 -0.51827257E-02 -0.52359350E-02 -0.52307383E-02
 -0.51742484E-02 -0.50731091E-02 -0.49335088E-02 -0.47611953E-02 -0.45614905E-02
 -0.43393059E-02 -0.40991582E-02 -0.38451850E-02 -0.35811608E-02 -0.33105131E-02
 -0.30363383E-02 -0.27614181E-02 -0.24882354E-02 -0.22189903E-02 -0.19556155E-02
 -0.16997922E-02 -0.14529656E-02 -0.12163595E-02 -0.99099116E-03 -0.77768604E-03
 -0.57709148E-03 -0.38969051E-03 -0.21581506E-03 -0.55658815E-04  0.90710474E-04
  0.22333904E-03  0.34237571E-03  0.44806093E-03  0.54071632E-03  0.62073475E-03
  0.68857086E-03  0.74473211E-03  0.78977037E-03  0.82427393E-03  0.84886009E-03
  0.86416821E-03  0.87085320E-03  0.86957958E-03  0.86101593E-03  0.84582982E-03
  0.82468320E-03  0.79822822E-03  0.76710346E-03  0.73193056E-03  0.69331124E-03
  0.65182475E-03  0.60802557E-03  0.56244156E-03  0.51557236E-03  0.46788818E-03
  0.41982875E-03  0.37180270E-03  0.32418707E-03  0.27732714E-03  0.23153642E-03
  0.18709691E-03  0.14425948E-03  0.10324447E-03  0.64242433E-04  0.27414989E-04
 -0.71041485E-05 -0.39208077E-04 -0.68815501E-04 -0.95869451E-04 -0.12033593E-03
 -0.14220253E-03 -0.16147694E-03 -0.17818556E-03 -0.19237190E-03 -0.20409518E-03
 -0.21342877E-03 -0.22045872E-03 -0.22528231E-03 -0.22800657E-03 -0.22874690E-03
 -0.22762569E-03 -0.22477101E-03 -0.22031531E-03 -0.21439422E-03 -0.20714541E-03
 -0.19870746E-03 -0.18921885E-03 -0.17881698E-03 -0.16763732E-03 -0.15581253E-03
 -0.14347172E-03 -0.13073982E-03 -0.11773690E-03 -0.10457767E-03 -0.91370999E-04
 -0.78219502E-04 -0.65219224E-04 -0.52459354E-04 -0.40022015E-04 -0.27982121E-04
 -0.16407277E-04 -0.53577434E-05  0.51135494E-05  0.14960943E-04  0.24145944E-04
  0.32637075E-04  0.40409692E-04  0.47445756E-04  0.53733592E-04  0.59267595E-04
  0.64047937E-04  0.68080231E-04  0.71375192E-04  0.73948275E-04  0.75819303E-04
  0.77012089E-04  0.77554051E-04  0.77475821E-04  0.76810854E-04  0.75595050E-04
  0.73866362E-04  0.71664426E-04  0.69030194E-04  0.66005577E-04  0.62633105E-04
  0.58955593E-04  0.55015831E-04  0.50856286E-04  0.46518822E-04  0.42044440E-04
  0.37473037E-04  0.32843182E-04  0.28191919E-04  0.23554581E-04  0.18964636E-04
  0.14453543E-04  0.10050635E-04  0.57830219E-05  0.16755091E-05 -0.22494583E-05
 -0.59718375E-05 -0.94740094E-05 -0.12740783E-04 -0.15759383E-04 -0.18519423E-04
 -0.21012860E-04 -0.23233943E-04 -0.25179137E-04 -0.26847048E-04 -0.28238327E-04
 -0.29355572E-04 -0.30203218E-04 -0.30787418E-04 -0.31115921E-04 -0.31197946E-04
 -0.31044047E-04 -0.30665982E-04 -0.30076569E-04 -0.29289557E-04 -0.28319481E-04
 -0.27181530E-04 -0.25891408E-04 -0.24465204E-04 -0.22919262E-04 -0.21270056E-04
 -0.19534070E-04 -0.17727682E-04 -0.15867055E-04 -0.13968035E-04 -0.12046054E-04
 -0.10116039E-04 -0.81923332E-05 -0.62886186E-05 -0.44178512E-05 -0.25922015E-05
 -0.82300301E-06  0.87929035E-06  0.25051400E-05  0.40459502E-05  0.54940881E-05
  0.68428964E-05  0.80866991E-05  0.92207997E-05  0.10241474E-04  0.11145953E-04
  0.11932408E-04  0.12599921E-04  0.13148452E-04  0.13578809E-04  0.13892603E-04
  0.14092208E-04  0.14180710E-04  0.14161861E-04  0.14040021E-04  0.13820111E-04
  0.13507549E-04  0.13108196E-04  0.12628298E-04  0.12074427E-04  0.11453423E-04
  0.10772334E-04  0.10038362E-04  0.92588042E-05  0.84410008E-05  0.75922806E-05
  0.67199115E-05  0.58310522E-05  0.49327062E-05  0.40316798E-05  0.31345416E-05
  0.22475862E-05  0.13768007E-05  0.52783462E-06 -0.29402660E-06 -0.10838848E-05
 -0.18372488E-05 -0.25500503E-05 -0.32186569E-05 -0.38398806E-05 -0.44109846E-05
 -0.49296849E-05 -0.53941502E-05 -0.58029978E-05 -0.61552873E-05 -0.64505109E-05
 -0.66885814E-05 -0.68698179E-05 -0.69949288E-05 -0.70649928E-05 -0.70814391E-05
 -0.70460239E-05 -0.69608075E-05 -0.68281290E-05 -0.66505803E-05 -0.64309790E-05
 -0.61723414E-05 -0.58778543E-05 -0.55508471E-05 -0.51947637E-05 -0.48131348E-05
 -0.44095501E-05 -0.39876317E-05 -0.35510074E-05 -0.31032859E-05 -0.26480319E-05
 -0.21887431E-05 -0.17288282E-05 -0.12715860E-05 -0.82018644E-06 -0.37765279E-06
  0.53154420E-07  0.46955181E-06  0.86904593E-06  0.12493443E-05  0.16083646E-05
  0.19442423E-05  0.22553365E-05  0.25402338E-05  0.27977510E-05  0.30269354E-05
  0.32270643E-05  0.33976426E-05  0.35383986E-05  0.36492788E-05  0.37304414E-05
  0.37822485E-05  0.38052566E-05  0.38002073E-05  0.37680156E-05  0.37097585E-05
  0.36266622E-05  0.35200889E-05  0.33915232E-05  0.32425581E-05  0.30748801E-05
  0.28902550E-05  0.26905131E-05  0.24775343E-05  0.22532338E-05  0.20195477E-05
  0.17784187E-05  0.15317826E-05  0.12815549E-05  0.10296186E-05  0.77781135E-06
  0.52791487E-06  0.28164373E-06  0.40635706E-07 -0.19355733E-06 -0.41947758E-06
 -0.63576864E-06 -0.84118189E-06 -0.10345819E-05 -0.12149511E-05 -0.13813931E-05
 -0.15331356E-05 -0.16695320E-05 -0.17900620E-05 -0.18943318E-05 -0.19820731E-05
 -0.20531411E-05 -0.21075120E-05 -0.21452800E-05 -0.21666526E-05 -0.21719465E-05
 -0.21615817E-05 -0.21360762E-05 -0.20960392E-05 -0.20421644E-05 -0.19752229E-05
 -0.18960552E-05 -0.18055642E-05 -0.17047062E-05 -0.15944838E-05 -0.14759367E-05
 -0.13501340E-05 -0.12181658E-05 -0.10811352E-05 -0.94014998E-06 -0.79631509E-06
 -0.65072490E-06 -0.50445595E-06 -0.35855996E-06 -0.21405723E-06 -0.71930442E-07
  0.66881160E-07  0.20148708E-06  0.33105042E-06  0.45479222E-06  0.57199531E-06
  0.68200760E-06  0.78424482E-06  0.87819281E-06  0.96340914E-06  0.10395243E-05
  0.11062422E-05  0.11633406E-05  0.12106701E-05  0.12481540E-05  0.12757860E-05
  0.12936294E-05  0.13018139E-05  0.13005336E-05  0.12900435E-05  0.12706567E-05
  0.12427400E-05  0.12067105E-05  0.11630313E-05  0.11122070E-05  0.10547789E-05
  0.99132097E-06  0.92243422E-06  0.84874245E-06  0.77088704E-06  0.68952214E-06
  0.60530979E-06  0.51891512E-06  0.43100170E-06  0.34222693E-06  0.25323766E-06
  0.16466596E-06  0.77125130E-07 -0.87940938E-08 -0.92527075E-07 -0.17353853E-06
 -0.25132552E-06 -0.32542010E-06 -0.39539174E-06 -0.46084934E-06 -0.52144300E-06
 -0.57686540E-06 -0.62685291E-06 -0.67118630E-06 -0.70969122E-06 -0.74223829E-06
 -0.76874289E-06 -0.78916466E-06 -0.80350671E-06 -0.81181454E-06 -0.81417470E-06
 -0.81071318E-06 -0.80159362E-06 -0.78701522E-06 -0.76721057E-06 -0.74244317E-06
 -0.71300491E-06 -0.67921335E-06 -0.64140891E-06 -0.59995196E-06 -0.55521987E-06
 -0.50760397E-06 -0.45750650E-06 -0.40533759E-06 -0.35151222E-06 -0.29644723E-06
 -0.24055836E-06 -0.18425746E-06 -0.12794963E-06 -0.72030670E-07 -0.16884471E-07
  0.37119326E-07  0.89627578E-07  0.14030571E-06  0.18883958E-06  0.23493725E-06
  0.27833042E-06  0.31877581E-06  0.35605623E-06  0.38998154E-06  0.42038931E-06
  0.44714532E-06  0.47014389E-06  0.48930791E-06  0.50458878E-06  0.51596608E-06
  0.52344707E-06  0.52706604E-06  0.52688346E-06  0.52298496E-06  0.51548020E-06
  0.50450156E-06  0.49020271E-06  0.47275710E-06  0.45235628E-06  0.42920821E-06
  0.40353545E-06  0.37557326E-06  0.34556773E-06  0.31377384E-06  0.28045345E-06
  0.24587340E-06  0.21030349E-06  0.17401458E-06  0.13727670E-06  0.10035716E-06
  0.63518778E-07  0.27018155E-07 -0.88959750E-08 -0.43984299E-07 -0.78018381E-07
 -0.11078201E-06 -0.14207245E-06 -0.17170153E-06 -0.19949668E-06 -0.22530175E-06
 -0.24897779E-06 -0.27040360E-06 -0.28947623E-06 -0.30611131E-06 -0.32024321E-06
 -0.33182515E-06 -0.34082909E-06 -0.34724554E-06 -0.35108324E-06 -0.35236875E-06
 -0.35114582E-06 -0.34747482E-06 -0.34143191E-06 -0.33310821E-06 -0.32260886E-06
 -0.31005201E-06 -0.29556771E-06 -0.27929677E-06 -0.26138959E-06 -0.24200489E-06
 -0.22130845E-06 -0.19947181E-06 -0.17667099E-06 -0.15308515E-06 -0.12889528E-06
 -0.10428296E-06 -0.79429016E-07 -0.54512335E-07 -0.29708645E-07 -0.51893618E-08
  0.18879510E-07  0.42338422E-07  0.65035256E-07  0.86826234E-07  0.10757674E-06
  0.12716209E-06  0.14546817E-06  0.16239204E-06  0.17784242E-06  0.19174009E-06
  0.20401821E-06  0.21462253E-06  0.22351151E-06  0.23065638E-06  0.23604108E-06
  0.23966212E-06  0.24152836E-06  0.24166072E-06  0.24009177E-06  0.23686531E-06
  0.23203584E-06  0.22566796E-06  0.21783576E-06  0.20862207E-06  0.19811778E-06
  0.18642102E-06  0.17363634E-06  0.15987386E-06  0.14524844E-06  0.12987873E-06
  0.11388634E-06  0.97394872E-07  0.80529098E-07  0.63414021E-07  0.46174024E-07
  0.28932019E-07  0.11808619E-07 -0.50786504E-08 -0.21616112E-07 -0.37694650E-07
 -0.53210380E-07 -0.68065274E-07 -0.82167727E-07 -0.95433077E-07 -0.10778406E-06
 -0.11915120E-06 -0.12947316E-06 -0.13869702E-06 -0.14677846E-06 -0.15368195E-06
 -0.15938078E-06 -0.16385714E-06 -0.16710205E-06 -0.16911527E-06 -0.16990512E-06
 -0.16948829E-06 -0.16788958E-06 -0.16514154E-06 -0.16128415E-06 -0.15636439E-06
 -0.15043575E-06 -0.14355781E-06 -0.13579568E-06 -0.12721944E-06 -0.11790359E-06
 -0.10792642E-06 -0.97369449E-07 -0.86316758E-07 -0.74854381E-07 -0.63069673E-07
 -0.51050677E-07 -0.38885503E-07 -0.26661719E-07 -0.14465750E-07 -0.23823021E-08
  0.95061966E-08  0.21120125E-07  0.32383172E-07  0.43222807E-07  0.53570717E-07
  0.63363204E-07  0.72541548E-07  0.81052325E-07  0.88847686E-07  0.95885591E-07
  0.10213000E-06  0.10755101E-06  0.11212498E-06  0.11583455E-06  0.11866869E-06
  0.12062264E-06  0.12169785E-06  0.12190184E-06  0.12124810E-06  0.11975581E-06
  0.11744968E-06  0.11435967E-06  0.11052065E-06  0.10597213E-06  0.10075788E-06
  0.94925559E-07  0.88526309E-07  0.81614358E-07  0.74246584E-07  0.66482076E-07
  0.58381686E-07  0.50007583E-07  0.41422793E-07  0.32690756E-07  0.23874869E-07
  0.15038060E-07  0.62423473E-08 -0.24515650E-08 -0.10984692E-07 -0.19300144E-07
 -0.27343491E-07 -0.35063093E-07 -0.42410417E-07 -0.49340316E-07 -0.55811293E-07
 -0.61785722E-07 -0.67230050E-07 -0.72114959E-07 -0.76415501E-07 -0.80111198E-07
 -0.83186114E-07 -0.85628889E-07 -0.87432740E-07 -0.88595440E-07 -0.89119255E-07
 -0.89010855E-07 -0.88281199E-07 -0.86945387E-07 -0.85022491E-07 -0.82535356E-07
 -0.79510383E-07 -0.75977288E-07 -0.71968841E-07 -0.67520595E-07 -0.62670589E-07
 -0.57459050E-07 -0.51928073E-07 -0.46121308E-07 -0.40083625E-07 -0.33860788E-07
 -0.27499121E-07 -0.21045181E-07 -0.14545432E-07 -0.80459194E-08 -0.15919637E-08
  0.47721453E-08  0.11003439E-07  0.17060544E-07  0.22903950E-07  0.28496247E-07
  0.33802356E-07  0.38789736E-07  0.43428565E-07  0.47691911E-07  0.51555868E-07
  0.54999678E-07  0.58005824E-07  0.60560102E-07  0.62651668E-07  0.64273061E-07
  0.65420202E-07  0.66092371E-07  0.66292161E-07  0.66025407E-07  0.65301096E-07
  0.64131259E-07  0.62530837E-07  0.60517539E-07  0.58111670E-07  0.55335955E-07
  0.52215344E-07  0.48776806E-07  0.45049110E-07  0.41062598E-07  0.36848954E-07
  0.32440961E-07  0.27872258E-07  0.23177096E-07  0.18390091E-07  0.13545975E-07
  0.86793576E-08  0.38244882E-08 -0.98497847E-09 -0.57162048E-08 -0.10337386E-07
 -0.14817956E-07 -0.19128778E-07 -0.23242329E-07 -0.27132863E-07 -0.30776565E-07
 -0.34151686E-07 -0.37238665E-07 -0.40020230E-07 -0.42481487E-07 -0.44609985E-07
 -0.46395765E-07 -0.47831400E-07 -0.48911999E-07 -0.49635212E-07 -0.50001206E-07
 -0.50012626E-07 -0.49674542E-07 -0.48994377E-07 -0.47981825E-07 -0.46648747E-07
 -0.45009058E-07 -0.43078602E-07 -0.40875016E-07 -0.38417576E-07 -0.35727047E-07
 -0.32825513E-07 -0.29736206E-07 -0.26483330E-07 -0.23091877E-07 -0.19587445E-07
 -0.15996050E-07 -0.12343942E-07 -0.86574184E-08 -0.49626397E-08 -0.12854535E-08
  0.23487825E-08  0.59153680E-08  0.93904225E-08  0.12751039E-07  0.15975428E-07
  0.19043055E-07  0.21934762E-07  0.24632883E-07  0.27121343E-07  0.29385752E-07
  0.31413474E-07  0.33193695E-07  0.34717472E-07  0.35977766E-07  0.36969466E-07
  0.37689399E-07  0.38136322E-07  0.38310904E-07  0.38215700E-07  0.37855097E-07
  0.37235271E-07  0.36364106E-07  0.35251128E-07  0.33907408E-07  0.32345468E-07
  0.30579172E-07  0.28623614E-07  0.26494994E-07  0.24210494E-07  0.21788140E-07
  0.19246671E-07  0.16605399E-07  0.13884064E-07  0.11102693E-07  0.82814578E-08
  0.54405351E-08  0.25999631E-08 -0.22049328E-09 -0.30014757E-08 -0.57241616E-08
 -0.83703866E-08 -0.10922762E-07 -0.13364785E-07 -0.15680940E-07 -0.17856793E-07
 -0.19879079E-07 -0.21735774E-07 -0.23416169E-07 -0.24910916E-07 -0.26212085E-07
 -0.27313194E-07 -0.28209235E-07 -0.28896691E-07 -0.29373540E-07 -0.29639248E-07
 -0.29694755E-07 -0.29542447E-07 -0.29186121E-07 -0.28630939E-07 -0.27883378E-07
 -0.26951163E-07 -0.25843201E-07 -0.24569501E-07 -0.23141090E-07 -0.21569928E-07
 -0.19868806E-07 -0.18051253E-07 -0.16131427E-07 -0.14124013E-07 -0.12044114E-07
 -0.99071368E-08 -0.77286873E-08 -0.55244555E-08 -0.33101077E-08 -0.11011777E-08
  0.10870390E-08  0.32395878E-08  0.53419545E-08  0.73801597E-08  0.93408492E-08
  0.11211378E-07  0.12979890E-07  0.14635387E-07  0.16167797E-07  0.17568031E-07
  0.18828033E-07  0.19940824E-07  0.20900533E-07  0.21702428E-07  0.22342933E-07
  0.22819634E-07  0.23131288E-07  0.23277810E-07  0.23260266E-07  0.23080843E-07
  0.22742826E-07  0.22250558E-07  0.21609399E-07  0.20825674E-07  0.19906619E-07
  0.18860316E-07  0.17695632E-07  0.16422141E-07  0.15050057E-07  0.13590146E-07
  0.12053651E-07  0.10452209E-07  0.87977587E-08  0.71024614E-08  0.53786097E-08
  0.36385424E-08  0.18945581E-08  0.15883047E-09 -0.15566743E-08 -0.32402780E-08
 -0.48806674E-08 -0.64669686E-08 -0.79888163E-08 -0.94364197E-08 -0.10800623E-07
 -0.12072962E-07 -0.13245712E-07 -0.14311935E-07 -0.15265516E-07 -0.16101196E-07
 -0.16814598E-07 -0.17402246E-07 -0.17861581E-07 -0.18190962E-07 -0.18389673E-07
 -0.18457909E-07 -0.18396772E-07 -0.18208245E-07 -0.17895173E-07 -0.17461230E-07
 -0.16910883E-07 -0.16249354E-07 -0.15482574E-07 -0.14617133E-07 -0.13660225E-07
 -0.12619595E-07 -0.11503472E-07 -0.10320515E-07 -0.90797396E-08 -0.77904581E-08
 -0.64622066E-08 -0.51046785E-08 -0.37276554E-08 -0.23409379E-08 -0.95427787E-09
  0.42268872E-09  0.17805070E-08  0.31099667E-08  0.44021627E-08  0.56485533E-08
  0.68410153E-08  0.79718947E-08  0.90340547E-08  0.10020919E-07  0.10926510E-07
  0.11745485E-07  0.12473163E-07  0.13105552E-07  0.13639366E-07  0.14072044E-07
  0.14401753E-07  0.14627398E-07  0.14748615E-07  0.14765773E-07  0.14679955E-07
  0.14492947E-07  0.14207216E-07  0.13825886E-07  0.13352705E-07  0.12792019E-07
  0.12148728E-07  0.11428249E-07  0.10636472E-07  0.97797151E-08  0.88646733E-08
  0.78983696E-08  0.68881022E-08  0.58413906E-08  0.47659215E-08  0.36694932E-08
  0.25599605E-08  0.14451801E-08  0.33295523E-09 -0.76901670E-09 -0.18531969E-08
 kinetic energy density (partial)
  0.17760278E+03  0.17752629E+03  0.17729703E+03  0.17691560E+03  0.17638302E+03
  0.17570071E+03  0.17487049E+03  0.17389454E+03  0.17277543E+03  0.17151608E+03
  0.17011977E+03  0.16859008E+03  0.16693094E+03  0.16514655E+03  0.16324137E+03
  0.16122015E+03  0.15908783E+03  0.15684959E+03  0.15451079E+03  0.15207693E+03
  0.14955368E+03  0.14694682E+03  0.14426221E+03  0.14150579E+03  0.13868356E+03
  0.13580154E+03  0.13286575E+03  0.12988220E+03  0.12685688E+03  0.12379570E+03
  0.12070453E+03  0.11758913E+03  0.11445517E+03  0.11130820E+03  0.10815365E+03
  0.10499677E+03  0.10184269E+03  0.98696372E+02  0.95562581E+02  0.92445917E+02
  0.89350782E+02  0.86281384E+02  0.83241729E+02  0.80235614E+02  0.77266630E+02
  0.74338156E+02  0.71453355E+02  0.68615180E+02  0.65826368E+02  0.63089444E+02
  0.60406722E+02  0.57780306E+02  0.55212096E+02  0.52703787E+02  0.50256875E+02
  0.47872664E+02  0.45552265E+02  0.43296607E+02  0.41106438E+02  0.38982335E+02
  0.36924704E+02  0.34933794E+02  0.33009697E+02  0.31152360E+02  0.29361586E+02
  0.27637046E+02  0.25978285E+02  0.24384727E+02  0.22855681E+02  0.21390355E+02
  0.19987855E+02  0.18647196E+02  0.17367308E+02  0.16147045E+02  0.14985187E+02
  0.13880452E+02  0.12831497E+02  0.11836930E+02  0.10895313E+02  0.10005167E+02
  0.91649791E+01  0.83732103E+01  0.76282972E+01  0.69286591E+01  0.62727030E+01
  0.56588279E+01  0.50854298E+01  0.45509057E+01  0.40536580E+01  0.35920981E+01
  0.31646504E+01  0.27697556E+01  0.24058736E+01  0.20714870E+01  0.17651036E+01
  0.14852591E+01  0.12305191E+01  0.99948161E+00  0.79077882E+00  0.60307874E+00
  0.43508682E+00  0.28554721E+00  0.15324392E+00  0.37001797E-01 -0.64312738E-01
 -0.15179103E+00 -0.22648178E+00 -0.28939068E+00 -0.34148034E+00 -0.38367020E+00
 -0.41683670E+00 -0.44181348E+00 -0.45939177E+00 -0.47032085E+00 -0.47530861E+00
 -0.47502222E+00 -0.47008890E+00 -0.46109675E+00 -0.44859564E+00 -0.43309820E+00
 -0.41508086E+00 -0.39498492E+00 -0.37321771E+00 -0.35015375E+00 -0.32613596E+00
 -0.30147688E+00 -0.27645997E+00 -0.25134085E+00 -0.22634859E+00 -0.20168704E+00
 -0.17753607E+00 -0.15405292E+00 -0.13137342E+00 -0.10961333E+00 -0.88869555E-01
 -0.69221398E-01 -0.50731778E-01 -0.33448422E-01 -0.17405028E-01 -0.26224006E-02
  0.10890448E-01  0.23135233E-01  0.34123365E-01  0.43874957E-01  0.52417876E-01
  0.59786830E-01  0.66022495E-01  0.71170691E-01  0.75281594E-01  0.78408997E-01
  0.80609609E-01  0.81942399E-01  0.82467985E-01  0.82248063E-01  0.81344879E-01
  0.79820745E-01  0.77737587E-01  0.75156547E-01  0.72137608E-01  0.68739270E-01
  0.65018255E-01  0.61029249E-01  0.56824677E-01  0.52454514E-01  0.47966123E-01
  0.43404125E-01  0.38810294E-01  0.34223486E-01  0.29679581E-01  0.25211461E-01
  0.20848998E-01  0.16619072E-01  0.12545604E-01  0.86496016E-02  0.49492266E-02
  0.14598737E-02 -0.18057389E-02 -0.48374664E-02 -0.76276259E-02 -0.10170876E-01
 -0.12464089E-01 -0.14506220E-01 -0.16298166E-01 -0.17842628E-01 -0.19143968E-01
 -0.20208065E-01 -0.21042166E-01 -0.21654751E-01 -0.22055382E-01 -0.22254568E-01
 -0.22263629E-01 -0.22094559E-01 -0.21759899E-01 -0.21272613E-01 -0.20645969E-01
 -0.19893427E-01 -0.19028527E-01 -0.18064795E-01 -0.17015642E-01 -0.15894281E-01
 -0.14713645E-01 -0.13486310E-01 -0.12224433E-01 -0.10939688E-01 -0.96432163E-02
 -0.83455765E-02 -0.70567083E-02 -0.57858981E-02 -0.45417526E-02 -0.33321787E-02
 -0.21643685E-02 -0.10447911E-02  0.20810878E-04  0.10274199E-02  0.19707365E-02
  0.28471688E-02  0.36538168E-02  0.43884539E-02  0.50495043E-02  0.56360171E-02
  0.61476384E-02  0.65845805E-02  0.69475884E-02  0.72379057E-02  0.74572384E-02
  0.76077171E-02  0.76918594E-02  0.77125308E-02  0.76729061E-02  0.75764304E-02
  0.74267799E-02  0.72278244E-02  0.69835896E-02  0.66982204E-02  0.63759454E-02
  0.60210432E-02  0.56378093E-02  0.52305251E-02  0.48034285E-02  0.43606864E-02
  0.39063689E-02  0.34444256E-02  0.29786639E-02  0.25127294E-02  0.20500882E-02
  0.15940118E-02  0.11475636E-02  0.71358732E-03  0.29469835E-03 -0.10672380E-03
 -0.48854063E-03 -0.84885798E-03 -0.11860275E-02 -0.14986465E-02 -0.17855559E-02
 -0.20458368E-02 -0.22788057E-02 -0.24840077E-02 -0.26612094E-02 -0.28103899E-02
 -0.29317311E-02 -0.30256070E-02 -0.30925718E-02 -0.31333485E-02 -0.31488152E-02
 -0.31399922E-02 -0.31080285E-02 -0.30541877E-02 -0.29798338E-02 -0.28864176E-02
 -0.27754618E-02 -0.26485481E-02 -0.25073027E-02 -0.23533832E-02 -0.21884655E-02
 -0.20142314E-02 -0.18323565E-02 -0.16444985E-02 -0.14522864E-02 -0.12573107E-02
 -0.10611135E-02 -0.86517984E-03 -0.67092975E-03 -0.47971120E-03 -0.29279355E-03
 -0.11136203E-03  0.63486985E-04  0.23074997E-03  0.38951937E-03  0.53898598E-03
  0.67844048E-03  0.80727433E-03  0.92497981E-03  0.10311495E-02  0.11254749E-02
  0.12077448E-02  0.12778425E-02  0.13357429E-02  0.13815092E-02  0.14152884E-02
  0.14373077E-02  0.14478686E-02  0.14473430E-02  0.14361670E-02  0.14148354E-02
  0.13838965E-02  0.13439452E-02  0.12956181E-02  0.12395864E-02  0.11765505E-02
  0.11072337E-02  0.10323766E-02  0.95273056E-03  0.86905272E-03  0.78210011E-03
  0.69262446E-03  0.60136713E-03  0.50905429E-03  0.41639244E-03  0.32406420E-03
  0.23272440E-03  0.14299658E-03  0.55469744E-04 -0.29304441E-04 -0.11081415E-03
 -0.18858950E-03 -0.26220430E-03 -0.33127744E-03 -0.39547389E-03 -0.45450540E-03
 -0.50813078E-03 -0.55615593E-03 -0.59843345E-03 -0.63486205E-03 -0.66538555E-03
 -0.68999172E-03 -0.70871074E-03 -0.72161354E-03 -0.72880983E-03 -0.73044598E-03
 -0.72670269E-03 -0.71779254E-03 -0.70395740E-03 -0.68546570E-03 -0.66260962E-03
 -0.63570226E-03 -0.60507472E-03 -0.57107312E-03 -0.53405575E-03 -0.49439007E-03
 -0.45244987E-03 -0.40861244E-03 -0.36325581E-03 -0.31675607E-03 -0.26948482E-03
 -0.22180673E-03 -0.17407722E-03 -0.12664026E-03 -0.79826386E-04 -0.33950820E-04
  0.10688236E-04  0.53811108E-04  0.95158002E-04  0.13449016E-03  0.17159085E-03
  0.20626616E-03  0.23834559E-03  0.26768251E-03  0.29415441E-03  0.31766295E-03
  0.33813393E-03  0.35551695E-03  0.36978507E-03  0.38093423E-03  0.38898253E-03
  0.39396944E-03  0.39595482E-03  0.39501785E-03  0.39125592E-03  0.38478331E-03
  0.37572993E-03  0.36423988E-03  0.35047002E-03  0.33458848E-03  0.31677313E-03
  0.29721005E-03  0.27609198E-03  0.25361673E-03  0.22998572E-03  0.20540238E-03
  0.18007073E-03  0.15419392E-03  0.12797281E-03  0.10160469E-03  0.75281969E-04
  0.49190990E-04  0.23510918E-04 -0.15873054E-05 -0.25941903E-04 -0.49401125E-04
 -0.71824005E-04 -0.93081032E-04 -0.11305471E-03 -0.13164003E-03 -0.14874484E-03
 -0.16429009E-03 -0.17821003E-03 -0.19045228E-03 -0.20097778E-03 -0.20976071E-03
 -0.21678826E-03 -0.22206036E-03 -0.22558934E-03 -0.22739942E-03 -0.22752626E-03
 -0.22601639E-03 -0.22292653E-03 -0.21832294E-03 -0.21228067E-03 -0.20488280E-03
 -0.19621965E-03 -0.18638791E-03 -0.17548981E-03 -0.16363224E-03 -0.15092590E-03
 -0.13748439E-03 -0.12342337E-03 -0.10885966E-03 -0.93910415E-04 -0.78692309E-04
 -0.63320708E-04 -0.47908921E-04 -0.32567457E-04 -0.17403334E-04 -0.25194274E-05
  0.11986135E-04  0.26020531E-04  0.39496744E-04  0.52334017E-04  0.64458247E-04
  0.75802322E-04  0.86306403E-04  0.95918146E-04  0.10459287E-03  0.11229366E-03
  0.11899144E-03  0.12466492E-03  0.12930060E-03  0.13289261E-03  0.13544258E-03
  0.13695943E-03  0.13745909E-03  0.13696425E-03  0.13550399E-03  0.13311343E-03
  0.12983332E-03  0.12570962E-03  0.12079304E-03  0.11513855E-03  0.10880493E-03
  0.10185421E-03  0.94351204E-04  0.86362942E-04  0.77958180E-04  0.69206864E-04
  0.60179614E-04  0.50947215E-04  0.41580119E-04  0.32147963E-04  0.22719105E-04
  0.13360179E-04  0.41356713E-05 -0.48924705E-05 -0.13665210E-04 -0.22126761E-04
 -0.30224894E-04 -0.37911213E-04 -0.45141399E-04 -0.51875420E-04 -0.58077701E-04
 -0.63717267E-04 -0.68767843E-04 -0.73207928E-04 -0.77020822E-04 -0.80194630E-04
 -0.82722231E-04 -0.84601207E-04 -0.85833749E-04 -0.86426533E-04 -0.86390564E-04
 -0.85740995E-04 -0.84496925E-04 -0.82681170E-04 -0.80320016E-04 -0.77442955E-04
 -0.74082402E-04 -0.70273402E-04 -0.66053322E-04 -0.61461536E-04 -0.56539108E-04
 -0.51328461E-04 -0.45873051E-04 -0.40217044E-04 -0.34404987E-04 -0.28481493E-04
 -0.22490924E-04 -0.16477095E-04 -0.10482974E-04 -0.45504059E-05  0.12801526E-05
  0.69698841E-05  0.12481843E-04  0.17781170E-04  0.22835287E-04  0.27614073E-04
  0.32090018E-04  0.36238353E-04  0.40037164E-04  0.43467477E-04  0.46513329E-04
  0.49161805E-04  0.51403064E-04  0.53230336E-04  0.54639905E-04  0.55631061E-04
  0.56206042E-04  0.56369954E-04  0.56130667E-04  0.55498704E-04  0.54487107E-04
  0.53111290E-04  0.51388884E-04  0.49339557E-04  0.46984844E-04  0.44347946E-04
  0.41453538E-04  0.38327563E-04  0.34997025E-04  0.31489779E-04  0.27834314E-04
  0.24059546E-04  0.20194607E-04  0.16268635E-04  0.12310573E-04  0.83489696E-05
  0.44117932E-05  0.52624476E-06 -0.32814124E-05 -0.69860164E-05 -0.10563658E-04
 -0.13991822E-04 -0.17249511E-04 -0.20317364E-04 -0.23177754E-04 -0.25814874E-04
 -0.28214811E-04 -0.30365601E-04 -0.32257273E-04 -0.33881876E-04 -0.35233493E-04
 -0.36308238E-04 -0.37104244E-04 -0.37621634E-04 -0.37862475E-04 -0.37830728E-04
 -0.37532180E-04 -0.36974365E-04 -0.36166478E-04 -0.35119275E-04 -0.33844970E-04
 -0.32357113E-04 -0.30670476E-04 -0.28800924E-04 -0.26765276E-04 -0.24581180E-04
 -0.22266962E-04 -0.19841492E-04 -0.17324041E-04 -0.14734135E-04 -0.12091419E-04
 -0.94155154E-05 -0.67258869E-05 -0.40417066E-05 -0.13817291E-05  0.12358313E-05
  0.37934166E-05  0.62742347E-05  0.86623605E-05  0.10942830E-04  0.13101724E-04
  0.15126249E-04  0.17004796E-04  0.18727008E-04  0.20283819E-04  0.21667497E-04
  0.22871669E-04  0.23891341E-04  0.24722906E-04  0.25364138E-04  0.25814189E-04
  0.26073558E-04  0.26144073E-04  0.26028841E-04  0.25732212E-04  0.25259719E-04
  0.24618017E-04  0.23814818E-04  0.22858818E-04  0.21759612E-04  0.20527617E-04
  0.19173978E-04  0.17710484E-04  0.16149465E-04  0.14503704E-04  0.12786334E-04
  0.11010742E-04  0.91904744E-05  0.73391335E-05  0.54702868E-05  0.35973712E-05
  0.17336027E-05 -0.10811169E-06 -0.19152580E-05 -0.36757947E-05 -0.53782283E-05
 -0.70116822E-05 -0.85659621E-05 -0.10031613E-04 -0.11399973E-04 -0.12663218E-04
 -0.13814400E-04 -0.14847480E-04 -0.15757354E-04 -0.16539873E-04 -0.17191850E-04
 -0.17711067E-04 -0.18096276E-04 -0.18347183E-04 -0.18464442E-04 -0.18449624E-04
 -0.18305195E-04 -0.18034484E-04 -0.17641639E-04 -0.17131589E-04 -0.16509992E-04
 -0.15783183E-04 -0.14958121E-04 -0.14042326E-04 -0.13043818E-04 -0.11971054E-04
 -0.10832859E-04 -0.96383573E-05 -0.83969088E-05 -0.71180348E-05 -0.58113509E-05
 -0.44864986E-05 -0.31530775E-05 -0.18205795E-05 -0.49832434E-06  0.80460164E-06
  0.20794050E-05  0.33176409E-05  0.45112663E-05  0.56526882E-05  0.67348090E-05
  0.77510673E-05  0.86954742E-05  0.95626449E-05  0.10347826E-04  0.11046917E-04
  0.11656490E-04  0.12173797E-04  0.12596783E-04  0.12924086E-04  0.13155034E-04
  0.13289638E-04  0.13328581E-04  0.13273204E-04  0.13125480E-04  0.12887995E-04
  0.12563917E-04  0.12156966E-04  0.11671376E-04  0.11111859E-04  0.10483563E-04
  0.97920324E-05  0.90431579E-05  0.82431326E-05  0.73984038E-05  0.65156231E-05
  0.56015977E-05  0.46632399E-05  0.37075173E-05  0.27414041E-05  0.17718319E-05
  0.80564232E-06 -0.15045863E-06 -0.10899454E-05 -0.20065149E-05 -0.28941271E-05
 -0.37470423E-05 -0.45598560E-05 -0.53275316E-05 -0.60454287E-05 -0.67093294E-05
 -0.73154604E-05 -0.78605124E-05 -0.83416550E-05 -0.87565493E-05 -0.91033557E-05
 -0.93807388E-05 -0.95878686E-05 -0.97244184E-05 -0.97905583E-05 -0.97869467E-05
 -0.97147179E-05 -0.95754660E-05 -0.93712272E-05 -0.91044584E-05 -0.87780133E-05
 -0.83951162E-05 -0.79593342E-05 -0.74745465E-05 -0.69449126E-05 -0.63748394E-05
 -0.57689463E-05 -0.51320295E-05 -0.44690268E-05 -0.37849803E-05 -0.30849998E-05
 -0.23742267E-05 -0.16577975E-05 -0.94080821E-06 -0.22827948E-06  0.47487683E-06
  0.11638903E-05  0.18341627E-05  0.24812975E-05  0.31011271E-05  0.36897383E-05
  0.42434956E-05  0.47590621E-05  0.52334182E-05  0.56638774E-05  0.60481004E-05
  0.63841055E-05  0.66702772E-05  0.69053717E-05  0.70885199E-05  0.72192278E-05
  0.72973742E-05  0.73232058E-05  0.72973302E-05  0.72207058E-05  0.70946300E-05
  0.69207254E-05  0.67009232E-05  0.64374453E-05  0.61327846E-05  0.57896835E-05
  0.54111111E-05  0.50002395E-05  0.45604183E-05  0.40951490E-05  0.36080581E-05
  0.31028707E-05  0.25833823E-05  0.20534321E-05  0.15168755E-05  0.97755686E-06
  0.43928333E-06 -0.94201344E-07 -0.61924169E-06 -0.11322947E-05 -0.16299526E-05
 -0.21089648E-05 -0.25662580E-05 -0.29989549E-05 -0.34043914E-05 -0.37801319E-05
 -0.41239831E-05 -0.44340052E-05 -0.47085225E-05 -0.49461303E-05 -0.51457014E-05
 -0.53063897E-05 -0.54276317E-05 -0.55091469E-05 -0.55509354E-05 -0.55532736E-05
 -0.55167088E-05 -0.54420513E-05 -0.53303647E-05 -0.51829556E-05 -0.50013603E-05
 -0.47873313E-05 -0.45428222E-05 -0.42699706E-05 -0.39710814E-05 -0.36486080E-05
 -0.33051333E-05 -0.29433498E-05 -0.25660398E-05 -0.21760541E-05 -0.17762919E-05
 -0.13696797E-05 -0.95915043E-06 -0.54762352E-06 -0.13798434E-06  0.26693513E-06
  0.66437523E-06  0.10516668E-05  0.14262485E-05  0.17856829E-05  0.21276718E-05
  0.24500702E-05  0.27508994E-05  0.30283577E-05  0.32808311E-05  0.35069018E-05
  0.37053549E-05  0.38751847E-05  0.40155983E-05  0.41260182E-05  0.42060839E-05
  0.42556506E-05  0.42747879E-05  0.42637760E-05  0.42231013E-05  0.41534497E-05
  0.40556995E-05  0.39309124E-05  0.37803242E-05  0.36053330E-05  0.34074881E-05
  0.31884767E-05  0.29501105E-05  0.26943117E-05  0.24230976E-05  0.21385657E-05
  0.18428783E-05  0.15382460E-05  0.12269123E-05  0.91113714E-06  0.59318135E-06
  0.27529077E-06 -0.40319103E-07 -0.35147808E-06 -0.65607571E-06 -0.95207517E-06
 -0.12375264E-05 -0.15105784E-05 -0.17694911E-05 -0.20126454E-05 -0.22385532E-05
 -0.24458661E-05 -0.26333825E-05 -0.28000544E-05 -0.29449924E-05 -0.30674698E-05
 -0.31669259E-05 -0.32429671E-05 -0.32953678E-05 -0.33240699E-05 -0.33291807E-05
 -0.33109701E-05 -0.32698668E-05 -0.32064532E-05 -0.31214589E-05 -0.30157547E-05
 -0.28903436E-05 -0.27463531E-05 -0.25850251E-05 -0.24077062E-05 -0.22158368E-05
 -0.20109402E-05 -0.17946105E-05 -0.15685010E-05 -0.13343119E-05 -0.10937777E-05
 -0.84865512E-06 -0.60071025E-06 -0.35170641E-06 -0.10339187E-06  0.14251207E-06
  0.38432270E-06  0.62040703E-06  0.84919253E-06  0.10691773E-05  0.12789394E-05
  0.14771462E-05  0.16625617E-05  0.18340547E-05  0.19906048E-05  0.21313083E-05
  0.22553829E-05  0.23621719E-05  0.24511465E-05  0.25219088E-05  0.25741922E-05
  0.26078617E-05  0.26229136E-05  0.26194737E-05  0.25977944E-05  0.25582521E-05
  0.25013426E-05  0.24276760E-05  0.23379717E-05  0.22330516E-05  0.21138330E-05
  0.19813216E-05  0.18366030E-05  0.16808341E-05  0.15152348E-05  0.13410782E-05
  0.11596812E-05  0.97239515E-06  0.78059569E-06  0.58567314E-06  0.38902259E-06
  0.19203419E-06 -0.39164352E-08 -0.19747754E-06 -0.38733034E-06 -0.57219778E-06
 -0.75085287E-06 -0.92212657E-06 -0.10849152E-05 -0.12381874E-05 -0.13809902E-05
 -0.15124549E-05 -0.16318020E-05 -0.17383455E-05 -0.18314965E-05 -0.19107662E-05
 -0.19757683E-05 -0.20262198E-05 -0.20619426E-05 -0.20828627E-05 -0.20890100E-05
 -0.20805166E-05 -0.20576148E-05 -0.20206342E-05 -0.19699982E-05 -0.19062203E-05
 -0.18298990E-05 -0.17417129E-05 -0.16424152E-05 -0.15328273E-05 -0.14138324E-05
 -0.12863687E-05 -0.11514224E-05 -0.10100197E-05 -0.86322018E-06 -0.71210814E-06
 -0.55778534E-06 -0.40136296E-06 -0.24395384E-06 -0.86664748E-07  0.69411268E-07
  0.22320225E-06  0.37366452E-06  0.51978963E-06  0.66061089E-06  0.79520961E-06
  0.92272092E-06  0.10423391E-05  0.11533227E-05  0.12549984E-05  0.13467656E-05
  0.14280992E-05  0.14985527E-05  0.15577601E-05  0.16054379E-05  0.16413857E-05
  0.16654869E-05  0.16777086E-05  0.16781006E-05  0.16667944E-05  0.16440011E-05
  0.16100094E-05  0.15651821E-05  0.15099536E-05  0.14448253E-05  0.13703617E-05
  0.12871858E-05  0.11959741E-05  0.10974512E-05  0.99238443E-06  0.88157779E-06
  0.76586620E-06  0.64610925E-06  0.52318500E-06  0.39798366E-06  0.27140132E-06
  0.14433367E-06  0.17669746E-07 -0.10771408E-06 -0.23096009E-06 -0.35123493E-06
 atomic pseudo charge-density
  0.30000000E+01  0.29935100E+01  0.29741545E+01  0.29422720E+01  0.28984103E+01
  0.28433032E+01  0.27778411E+01  0.27030366E+01  0.26199888E+01  0.25298480E+01
  0.24337818E+01  0.23329462E+01  0.22284600E+01  0.21213855E+01  0.20127135E+01
  0.19033530E+01  0.17941260E+01  0.16857647E+01  0.15789123E+01  0.14741260E+01
  0.13718807E+01  0.12725749E+01  0.11765362E+01  0.10840278E+01  0.99525406E+00
  0.91036722E+00  0.82947257E+00  0.75263396E+00  0.67987882E+00  0.61120266E+00
  0.54657327E+00  0.48593457E+00  0.42921008E+00  0.37630605E+00  0.32711433E+00
  0.28151494E+00  0.23937840E+00  0.20056782E+00  0.16494076E+00  0.13235094E+00
  0.10264968E+00  0.75687243E-01  0.51314007E-01  0.29381444E-01  0.97430165E-02
 -0.77450795E-02 -0.23223277E-01 -0.36828106E-01 -0.48691762E-01 -0.58941753E-01
 -0.67700629E-01 -0.75085788E-01 -0.81209326E-01 -0.86177965E-01 -0.90093012E-01
 -0.93050368E-01 -0.95140576E-01 -0.96448891E-01 -0.97055387E-01 -0.97035081E-01
 -0.96458075E-01 -0.95389715E-01 -0.93890759E-01 -0.92017558E-01 -0.89822235E-01
 -0.87352883E-01 -0.84653744E-01 -0.81765409E-01 -0.78725007E-01 -0.75566388E-01
 -0.72320315E-01 -0.69014639E-01 -0.65674480E-01 -0.62322395E-01 -0.58978546E-01
 -0.55660856E-01 -0.52385166E-01 -0.49165377E-01 -0.46013595E-01 -0.42940262E-01
 -0.39954281E-01 -0.37063142E-01 -0.34273031E-01 -0.31588942E-01 -0.29014777E-01
 -0.26553440E-01 -0.24206932E-01 -0.21976434E-01 -0.19862385E-01 -0.17864557E-01
 -0.15982130E-01 -0.14213748E-01 -0.12557588E-01 -0.11011411E-01 -0.95726192E-02
 -0.82383008E-02 -0.70052775E-02 -0.58701461E-02 -0.48293167E-02 -0.38790488E-02
 -0.30154839E-02 -0.22346757E-02 -0.15326179E-02 -0.90526913E-03 -0.34857617E-03
  0.14150526E-03  0.56899156E-03  0.93785421E-03  0.12520045E-02  0.15152797E-02
  0.17314312E-02  0.19041136E-02  0.20368756E-02  0.21331518E-02  0.21962555E-02
  0.22293736E-02  0.22355613E-02  0.22177385E-02  0.21786870E-02  0.21210483E-02
  0.20473223E-02  0.19598668E-02  0.18608978E-02  0.17524899E-02  0.16365776E-02
  0.15149575E-02  0.13892900E-02  0.12611024E-02  0.11317920E-02  0.10026293E-02
  0.87476203E-03  0.74921891E-03  0.62691418E-03  0.50865201E-03  0.39513116E-03
  0.28694983E-03  0.18461058E-03  0.88525425E-04 -0.97909462E-06 -0.83656736E-04
 -0.15933639E-03 -0.22791688E-03 -0.28936184E-03 -0.34369462E-03 -0.39099316E-03
 -0.43138513E-03 -0.46504299E-03 -0.49217923E-03 -0.51304179E-03 -0.52790951E-03
 -0.53708780E-03 -0.54090447E-03 -0.53970571E-03 -0.53385225E-03 -0.52371568E-03
 -0.50967508E-03 -0.49211365E-03 -0.47141574E-03 -0.44796395E-03 -0.42213649E-03
 -0.39430475E-03 -0.36483106E-03 -0.33406667E-03 -0.30234993E-03 -0.27000468E-03
 -0.23733880E-03 -0.20464305E-03 -0.17218999E-03 -0.14023315E-03 -0.10900637E-03
 -0.78723297E-04 -0.49577087E-04 -0.21740201E-04  0.46355918E-05  0.29419098E-04
  0.52499439E-04  0.73785676E-04  0.93206308E-04  0.11070868E-03  0.12625828E-03
  0.13983796E-03  0.15144708E-03  0.16110057E-03  0.16882797E-03  0.17467237E-03
  0.17868937E-03  0.18094594E-03  0.18151934E-03  0.18049596E-03  0.17797019E-03
  0.17404326E-03  0.16882216E-03  0.16241848E-03  0.15494735E-03  0.14652640E-03
  0.13727469E-03  0.12731178E-03  0.11675677E-03  0.10572744E-03  0.94339376E-04
  0.82705237E-04  0.70934016E-04  0.59130395E-04  0.47394149E-04  0.35819621E-04
  0.24495259E-04  0.13503218E-04  0.29190278E-05 -0.71886745E-05 -0.16758351E-04
 -0.25735702E-04 -0.34073755E-04 -0.41732883E-04 -0.48680773E-04 -0.54892348E-04
 -0.60349623E-04 -0.65041532E-04 -0.68963696E-04 -0.72118159E-04 -0.74513087E-04
 -0.76162428E-04 -0.77085554E-04 -0.77306865E-04 -0.76855380E-04 -0.75764312E-04
 -0.74070618E-04 -0.71814554E-04 -0.69039213E-04 -0.65790067E-04 -0.62114502E-04
 -0.58061371E-04 -0.53680538E-04 -0.49022448E-04 -0.44137697E-04 -0.39076630E-04
 -0.33888946E-04 -0.28623335E-04 -0.23327127E-04 -0.18045975E-04 -0.12823553E-04
 -0.77012933E-05 -0.27181414E-05  0.20896552E-05  0.66887301E-05  0.11048752E-04
  0.15142546E-04  0.18946194E-04  0.22439093E-04  0.25603999E-04  0.28427030E-04
  0.30897655E-04  0.33008644E-04  0.34756009E-04  0.36138907E-04  0.37159530E-04
  0.37822977E-04  0.38137099E-04  0.38112337E-04  0.37761543E-04  0.37099782E-04
  0.36144135E-04  0.34913481E-04  0.33428284E-04  0.31710368E-04  0.29782687E-04
  0.27669105E-04  0.25394163E-04  0.22982860E-04  0.20460431E-04  0.17852133E-04
  0.15183042E-04  0.12477851E-04  0.97606821E-05  0.70549141E-05  0.43830130E-05
  0.17663819E-05 -0.77477741E-06 -0.32215885E-05 -0.55566093E-05 -0.77639260E-05
 -0.98292316E-05 -0.11739889E-04 -0.13484977E-04 -0.15055324E-04 -0.16443525E-04
 -0.17643940E-04 -0.18652688E-04 -0.19467613E-04 -0.20088251E-04 -0.20515776E-04
 -0.20752936E-04 -0.20803980E-04 -0.20674573E-04 -0.20371707E-04 -0.19903595E-04
 -0.19279567E-04 -0.18509959E-04 -0.17605991E-04 -0.16579651E-04 -0.15443568E-04
 -0.14210887E-04 -0.12895148E-04 -0.11510158E-04 -0.10069869E-04 -0.85882600E-05
 -0.70792167E-05 -0.55564230E-05 -0.40332515E-05 -0.25226635E-05 -0.10371132E-05
  0.41153923E-06  0.18121087E-05  0.31541568E-05  0.44280565E-05  0.56250470E-05
  0.67372805E-05  0.77578604E-05  0.86808694E-05  0.95013900E-05  0.10215515E-04
  0.10820351E-04  0.11314011E-04  0.11695601E-04  0.11965199E-04  0.12123823E-04
  0.12173400E-04  0.12116717E-04  0.11957378E-04  0.11699746E-04  0.11348887E-04
  0.10910508E-04  0.10390888E-04  0.97968117E-05  0.91354960E-05  0.84145191E-05
  0.76417461E-05  0.68252546E-05  0.59732618E-05  0.50940510E-05  0.41959010E-05
  0.32870162E-05  0.23754606E-05  0.14690938E-05  0.57551060E-06 -0.29801481E-06
 -0.11445814E-05 -0.19577085E-05 -0.27313788E-05 -0.34600762E-05 -0.41388178E-05
 -0.47631817E-05 -0.53293283E-05 -0.58340170E-05 -0.62746170E-05 -0.66491125E-05
 -0.69561035E-05 -0.71948005E-05 -0.73650149E-05 -0.74671442E-05 -0.75021528E-05
 -0.74715491E-05 -0.73773578E-05 -0.72220892E-05 -0.70087054E-05 -0.67405826E-05
 -0.64214726E-05 -0.60554606E-05 -0.56469219E-05 -0.52004778E-05 -0.47209499E-05
 -0.42133143E-05 -0.36826552E-05 -0.31341197E-05 -0.25728722E-05 -0.20040509E-05
 -0.14327244E-05 -0.86385155E-06 -0.30224151E-06  0.24748239E-06  0.78091723E-06
  0.12939120E-05  0.17825960E-05  0.22434050E-05  0.26731029E-05  0.30688012E-05
  0.34279741E-05  0.37484715E-05  0.40285268E-05  0.42667626E-05  0.44621928E-05
  0.46142205E-05  0.47226338E-05  0.47875975E-05  0.48096429E-05  0.47896534E-05
  0.47288491E-05  0.46287671E-05  0.44912416E-05  0.43183803E-05  0.41125401E-05
  0.38763010E-05  0.36124383E-05  0.33238950E-05  0.30137520E-05  0.26851991E-05
  0.23415051E-05  0.19859880E-05  0.16219860E-05  0.12528282E-05  0.88180711E-06
  0.51215113E-06  0.14699898E-06 -0.21062490E-06 -0.55783326E-06 -0.89189724E-06
 -0.12102658E-05 -0.15105829E-05 -0.17907033E-05 -0.20487053E-05 -0.22829020E-05
 -0.24918498E-05 -0.26743553E-05 -0.28294789E-05 -0.29565375E-05 -0.30551036E-05
 -0.31250034E-05 -0.31663118E-05 -0.31793465E-05 -0.31646589E-05 -0.31230247E-05
 -0.30554314E-05 -0.29630654E-05 -0.28472969E-05 -0.27096642E-05 -0.25518568E-05
 -0.23756973E-05 -0.21831227E-05 -0.19761657E-05 -0.17569348E-05 -0.15275947E-05
 -0.12903468E-05 -0.10474092E-05 -0.80099802E-06 -0.55330793E-06 -0.30649444E-06
 -0.62656241E-07  0.17618130E-06  0.40808176E-06  0.63121208E-06  0.84385583E-06
  0.10444252E-05  0.12314716E-05  0.14036948E-05  0.15599507E-05  0.16992575E-05
  0.18208005E-05  0.19239352E-05  0.20081889E-05  0.20732610E-05  0.21190218E-05
  0.21455093E-05  0.21529257E-05  0.21416317E-05  0.21121400E-05  0.20651074E-05
  0.20013262E-05  0.19217143E-05  0.18273047E-05  0.17192341E-05  0.15987307E-05
  0.14671022E-05  0.13257225E-05  0.11760186E-05  0.10194574E-05  0.85753231E-06
  0.69174976E-06  0.52361626E-06  0.35462548E-06  0.18624583E-06  0.19908480E-07
 -0.14300402E-06 -0.30116846E-06 -0.45333097E-06 -0.59831618E-06 -0.73503555E-06
 -0.86249476E-06 -0.97980014E-06 -0.10861641E-05 -0.11809096E-05 -0.12634735E-05
 -0.13334088E-05 -0.13903861E-05 -0.14341940E-05 -0.14647380E-05 -0.14820391E-05
 -0.14862309E-05 -0.14775564E-05 -0.14563631E-05 -0.14230985E-05 -0.13783034E-05
 -0.13226058E-05 -0.12567134E-05 -0.11814062E-05 -0.10975280E-05 -0.10059780E-05
 -0.90770211E-06 -0.80368353E-06 -0.69493389E-06 -0.58248393E-06 -0.46737434E-06
 -0.35064664E-06 -0.23333432E-06 -0.11645421E-06 -0.99815014E-09  0.11207493E-06
  0.22184648E-06  0.32744532E-06  0.42805406E-06  0.52291494E-06  0.61133504E-06
  0.69269083E-06  0.76643203E-06  0.83208478E-06  0.88925405E-06  0.93762543E-06
  0.97696608E-06  0.10071250E-05  0.10280328E-05  0.10397003E-05  0.10422169E-05
  0.10357484E-05  0.10205338E-05  0.99688178E-06  0.96516659E-06  0.92582366E-06
  0.87934455E-06  0.82627162E-06  0.76719238E-06  0.70273354E-06  0.63355493E-06
  0.56034315E-06  0.48380523E-06  0.40466216E-06  0.32364250E-06  0.24147601E-06
  0.15888745E-06  0.76590478E-07 -0.47181575E-08 -0.84364217E-07 -0.16170124E-06
 -0.23611546E-06 -0.30703039E-06 -0.37391094E-06 -0.43626715E-06 -0.49365741E-06
 -0.54569125E-06 -0.59203165E-06 -0.63239678E-06 -0.66656132E-06 -0.69435721E-06
 -0.71567393E-06 -0.73045830E-06 -0.73871378E-06 -0.74049924E-06 -0.73592747E-06
 -0.72516301E-06 -0.70841983E-06 -0.68595844E-06 -0.65808281E-06 -0.62513688E-06
 -0.58750088E-06 -0.54558736E-06 -0.49983705E-06 -0.45071456E-06 -0.39870398E-06
 -0.34430437E-06 -0.28802523E-06 -0.23038202E-06 -0.17189159E-06 -0.11306785E-06
 -0.54417441E-07  0.35644169E-08  0.60397886E-07  0.11562227E-06  0.16879955E-06
  0.21951763E-06  0.26739332E-06  0.31207502E-06  0.35324505E-06  0.39062173E-06
  0.42396097E-06  0.45305766E-06  0.47774664E-06  0.49790327E-06  0.51344375E-06
  0.52432497E-06  0.53054412E-06  0.53213791E-06  0.52918149E-06  0.52178708E-06
  0.51010228E-06  0.49430812E-06  0.47461694E-06  0.45126990E-06  0.42453448E-06
  0.39470163E-06  0.36208290E-06  0.32700742E-06  0.28981874E-06  0.25087170E-06
  0.21052918E-06  0.16915890E-06  0.12713024E-06  0.84811085E-07  0.42564723E-07
  0.74691932E-09 -0.40296966E-07 -0.80234678E-07 -0.11874961E-06 -0.15554319E-06
 -0.19033701E-06 -0.22287481E-06 -0.25292422E-06 -0.28027822E-06 -0.30475645E-06
 -0.32620615E-06 -0.34450298E-06 -0.35955148E-06 -0.37128535E-06 -0.37966743E-06
 -0.38468948E-06 -0.38637166E-06 -0.38476186E-06 -0.37993477E-06 -0.37199071E-06
 -0.36105432E-06 -0.34727306E-06 -0.33081555E-06 -0.31186971E-06 -0.29064088E-06
 -0.26734970E-06 -0.24223006E-06 -0.21552678E-06 -0.18749346E-06 -0.15839012E-06
 -0.12848093E-06 -0.98031892E-07 -0.67308626E-07 -0.36574115E-07 -0.60865680E-08
  0.23902652E-07  0.53151001E-07  0.81426622E-07  0.10851007E-06  0.13419595E-06
  0.15829430E-06  0.18063198E-06  0.20105372E-06  0.21942317E-06  0.23562359E-06
  0.24955853E-06  0.26115225E-06  0.27034993E-06  0.27711779E-06  0.28144292E-06
  0.28333308E-06  0.28281617E-06  0.27993970E-06  0.27476997E-06  0.26739122E-06
  0.25790458E-06  0.24642690E-06  0.23308952E-06  0.21803690E-06  0.20142516E-06
  0.18342060E-06  0.16419811E-06  0.14393956E-06  0.12283219E-06  0.10106692E-06
  0.78836717E-07  0.56334949E-07  0.33753788E-07  0.11282626E-07 -0.10893443E-07
 -0.32595077E-07 -0.53650067E-07 -0.73894639E-07 -0.93174652E-07 -0.11134670E-06
 -0.12827912E-06 -0.14385285E-06 -0.15796218E-06 -0.17051543E-06 -0.18143540E-06
 -0.19065979E-06 -0.19814143E-06 -0.20384840E-06 -0.20776402E-06 -0.20988672E-06
 -0.21022980E-06 -0.20882100E-06 -0.20570209E-06 -0.20092823E-06 -0.19456726E-06
 -0.18669898E-06 -0.17741422E-06 -0.16681395E-06 -0.15500821E-06 -0.14211510E-06
 -0.12825964E-06 -0.11357262E-06 -0.98189443E-07 -0.82248899E-07 -0.65891999E-07
 -0.49260758E-07 -0.32497019E-07 -0.15741292E-07  0.86837816E-09  0.17197499E-07
  0.33116171E-07  0.48500075E-07  0.63231392E-07  0.77199656E-07  0.90302533E-07
  0.10244652E-06  0.11354755E-06  0.12353153E-06  0.13233478E-06  0.13990433E-06
  0.14619826E-06  0.15118575E-06  0.15484722E-06  0.15717427E-06  0.15816956E-06
  0.15784660E-06  0.15622946E-06  0.15335239E-06  0.14925939E-06  0.14400366E-06
  0.13764704E-06  0.13025932E-06  0.12191761E-06  0.11270550E-06  0.10271236E-06
  0.92032455E-07  0.80764131E-07  0.69008936E-07  0.56870743E-07  0.44454872E-07
  0.31867210E-07  0.19213342E-07  0.65976972E-08 -0.58772732E-08 -0.18111899E-07
 -0.30010053E-07 -0.41479869E-07 -0.52434422E-07 -0.62792347E-07 -0.72478413E-07
 -0.81424028E-07 -0.89567692E-07 -0.96855378E-07 -0.10324085E-06 -0.10868592E-06
 -0.11316061E-06 -0.11664328E-06 -0.11912067E-06 -0.12058788E-06 -0.12104825E-06
 -0.12051325E-06 -0.11900221E-06 -0.11654208E-06 -0.11316708E-06 -0.10891832E-06
 -0.10384333E-06 -0.97995622E-07 -0.91434154E-07 -0.84222754E-07 -0.76429548E-07
 -0.68126345E-07 -0.59387999E-07 -0.50291766E-07 -0.40916645E-07 -0.31342716E-07
 -0.21650481E-07 -0.11920214E-07 -0.22313145E-08  0.73383099E-08  0.16712852E-07
  0.25819178E-07  0.34587378E-07  0.42951275E-07  0.50848907E-07  0.58222952E-07
  0.65021130E-07  0.71196541E-07  0.76707968E-07  0.81520121E-07  0.85603835E-07
  0.88936217E-07  0.91500740E-07  0.93287283E-07  0.94292120E-07  0.94517863E-07
  0.93973348E-07  0.92673480E-07  0.90639028E-07  0.87896376E-07  0.84477237E-07
  0.80418322E-07  0.75760983E-07  0.70550815E-07  0.64837235E-07  0.58673038E-07
  0.52113925E-07  0.45218023E-07  0.38045388E-07  0.30657500E-07  0.23116752E-07
  0.15485943E-07  0.78277680E-08  0.20432409E-09 -0.73233796E-08 -0.14695893E-07
 -0.21855779E-07 -0.28748044E-07 -0.35320546E-07 -0.41524371E-07 -0.47314184E-07
 -0.52648541E-07 -0.57490173E-07 -0.61806227E-07 -0.65568473E-07 -0.68753471E-07
 -0.71342696E-07 -0.73322626E-07 -0.74684788E-07 -0.75425759E-07 -0.75547135E-07
 -0.75055455E-07 -0.73962090E-07 -0.72283090E-07 -0.70039005E-07 -0.67254662E-07
 -0.63958918E-07 -0.60184384E-07 -0.55967119E-07 -0.51346298E-07 -0.46363874E-07
 -0.41064198E-07 -0.35493649E-07 -0.29700236E-07 -0.23733197E-07 -0.17642593E-07
 -0.11478901E-07 -0.52926066E-08  0.86619771E-09  0.69482079E-08  0.12905292E-07
  0.18690858E-07  0.24260212E-07  0.29570891E-07  0.34582974E-07  0.39259376E-07
  0.43566111E-07  0.47472527E-07  0.50951519E-07  0.53979701E-07  0.56537555E-07
  0.58609547E-07  0.60184204E-07  0.61254166E-07  0.61816201E-07  0.61871184E-07
  0.61424051E-07  0.60483717E-07  0.59062959E-07  0.57178280E-07  0.54849735E-07
  0.52100737E-07  0.48957834E-07  0.45450466E-07  0.41610702E-07  0.37472954E-07
  0.33073682E-07  0.28451080E-07  0.23644755E-07  0.18695396E-07  0.13644435E-07
  0.85337157E-08  0.34051460E-08 -0.16996320E-08 -0.67395751E-08 -0.11674561E-07
 -0.16465703E-07 -0.21075645E-07 -0.25468851E-07 -0.29611870E-07 -0.33473588E-07
 -0.37025450E-07 -0.40241670E-07 -0.43099409E-07 -0.45578935E-07 -0.47663749E-07
 -0.49340690E-07 -0.50600008E-07 -0.51435417E-07 -0.51844106E-07 -0.51826740E-07
 -0.51387413E-07 -0.50533595E-07 -0.49276035E-07 -0.47628648E-07 -0.45608377E-07
 -0.43235025E-07 -0.40531076E-07 -0.37521490E-07 -0.34233478E-07 -0.30696264E-07
 -0.26940833E-07 -0.22999669E-07 -0.18906474E-07 -0.14695890E-07 -0.10403213E-07
 -0.60640983E-08 -0.17142720E-08  0.26107578E-08  0.68759870E-08  0.11047194E-07
  0.15091209E-07  0.18976176E-07  0.22671796E-07  0.26149565E-07  0.29382983E-07
  0.32347759E-07  0.35021987E-07  0.37386303E-07  0.39424024E-07  0.41121263E-07
  0.42467015E-07  0.43453227E-07  0.44074841E-07  0.44329806E-07  0.44219080E-07
  0.43746589E-07  0.42919179E-07  0.41746537E-07  0.40241086E-07  0.38417867E-07
  0.36294396E-07  0.33890501E-07  0.31228146E-07  0.28331231E-07  0.25225387E-07
  0.21937753E-07  0.18496742E-07  0.14931801E-07  0.11273165E-07  0.75515995E-08
  0.37981498E-08  0.43883778E-10 -0.36803618E-08 -0.73442315E-08 -0.10918096E-07
 -0.14373288E-07 -0.17682332E-07 -0.20819156E-07 -0.23759301E-07 -0.26480102E-07
 -0.28960868E-07 -0.31183032E-07 -0.33130289E-07 -0.34788715E-07 -0.36146863E-07
 -0.37195839E-07 -0.37929358E-07 -0.38343774E-07 -0.38438096E-07 -0.38213972E-07
 -0.37675660E-07 -0.36829976E-07 -0.35686215E-07 -0.34256064E-07 -0.32553480E-07
 -0.30594570E-07 -0.28397435E-07 -0.25982010E-07 -0.23369888E-07 -0.20584131E-07
 -0.17649066E-07 -0.14590080E-07 -0.11433401E-07 -0.82058777E-08 -0.49347516E-08
 -0.16474309E-08  0.16287374E-08  0.48666926E-08  0.80398822E-08  0.11122477E-07
   14.3619175131998      T
 Non local Part
           0           2   1.40630992970447     
   1.22702071051407        1.16798510591841        1.16798510591841     
   1.00480779378539     
 Reciprocal Space Part
  0.76982427E+02  0.76475926E+02  0.74963523E+02  0.72466404E+02  0.69019478E+02
  0.64670791E+02  0.59480714E+02  0.53520936E+02  0.46873260E+02  0.39628247E+02
  0.31883722E+02  0.23743172E+02  0.15314066E+02  0.67061301E+01 -0.19703898E+01
 -0.10606449E+02 -0.19095874E+02 -0.27336956E+02 -0.35233937E+02 -0.42698362E+02
 -0.49650278E+02 -0.56019263E+02 -0.61745262E+02 -0.66779227E+02 -0.71083555E+02
 -0.74632303E+02 -0.77411213E+02 -0.79417524E+02 -0.80659592E+02 -0.81156334E+02
 -0.80936504E+02 -0.80037825E+02 -0.78506001E+02 -0.76393617E+02 -0.73758975E+02
 -0.70664869E+02 -0.67177338E+02 -0.63364414E+02 -0.59294893E+02 -0.55037155E+02
 -0.50658041E+02 -0.46221820E+02 -0.41789258E+02 -0.37416797E+02 -0.33155861E+02
 -0.29052293E+02 -0.25145927E+02 -0.21470305E+02 -0.18052522E+02 -0.14913206E+02
 -0.12066630E+02 -0.95209249E+01 -0.72784146E+01 -0.53360297E+01 -0.36858053E+01
 -0.23154395E+01 -0.12088987E+01 -0.34705419E+00  0.29166583E+00  0.73062393E+00
  0.99433480E+00  0.11078533E+01  0.10962009E+01  0.98383999E+00  0.79420550E+00
  0.54929870E+00  0.26934901E+00 -0.27454200E-01 -0.32515878E+00 -0.61017683E+00
 -0.87134421E+00 -0.10999164E+01 -0.12895061E+01 -0.14359687E+01 -0.15372429E+01
 -0.15931540E+01 -0.16051885E+01 -0.15762474E+01 -0.15103873E+01 -0.14125557E+01
 -0.12883305E+01 -0.11436671E+01 -0.98466187E+00 -0.81733541E+00 -0.64744092E+00
 -0.48029977E+00 -0.32066715E+00 -0.17262873E+00 -0.39528460E-01  0.76073106E-01
  0.17241151E+00  0.24850433E+00  0.30411322E+00  0.33968523E+00  0.35627721E+00
  0.35546697E+00  0.33925526E+00  0.30996236E+00  0.27012312E+00  0.22238388E+00
 Real Space Part
 -0.31271322E+03 -0.31237537E+03 -0.31136389E+03 -0.30968491E+03 -0.30734857E+03
 -0.30436887E+03 -0.30076355E+03 -0.29655379E+03 -0.29176403E+03 -0.28642165E+03
 -0.28055663E+03 -0.27420128E+03 -0.26738983E+03 -0.26015811E+03 -0.25254316E+03
 -0.24458294E+03 -0.23631591E+03 -0.22778076E+03 -0.21901608E+03 -0.21006007E+03
 -0.20095030E+03 -0.19172345E+03 -0.18241511E+03 -0.17305960E+03 -0.16368982E+03
 -0.15433715E+03 -0.14503130E+03 -0.13580028E+03 -0.12667032E+03 -0.11766588E+03
 -0.10880961E+03 -0.10012235E+03 -0.91623197E+02 -0.83329492E+02 -0.75256900E+02
 -0.67419450E+02 -0.59829606E+02 -0.52498330E+02 -0.45435159E+02 -0.38648276E+02
 -0.32144584E+02 -0.25929787E+02 -0.20008457E+02 -0.14384110E+02 -0.90592709E+01
 -0.40355427E+01  0.68633698E+00  0.51064377E+01  0.92255857E+01  0.13045318E+02
  0.16567843E+02  0.19796003E+02  0.22733246E+02  0.25383602E+02  0.27751661E+02
  0.29842559E+02  0.31661970E+02  0.33216096E+02  0.34511665E+02  0.35555930E+02
  0.36356671E+02  0.36922198E+02  0.37261352E+02  0.37383509E+02  0.37298580E+02
  0.37017010E+02  0.36549774E+02  0.35908364E+02  0.35104779E+02  0.34151498E+02
  0.33061456E+02  0.31848005E+02  0.30524873E+02  0.29106104E+02  0.27606002E+02
  0.26039055E+02  0.24419860E+02  0.22763029E+02  0.21083098E+02  0.19394425E+02
  0.17711085E+02  0.16046758E+02  0.14414621E+02  0.12827238E+02  0.11296449E+02
  0.98332719E+01  0.84478003E+01  0.71491181E+01  0.59452189E+01  0.48429398E+01
  0.38479077E+01  0.29644968E+01  0.21958046E+01  0.15436430E+01  0.10085385E+01
  0.58975568E+00  0.28532041E+00  0.92152395E-01  0.67872612E-02  0.00000000E+00
 Reciprocal Space Part
 -0.54218132E+02 -0.53827421E+02 -0.52660856E+02 -0.50735046E+02 -0.48077360E+02
 -0.44725456E+02 -0.40726649E+02 -0.36137102E+02 -0.31020886E+02 -0.25448905E+02
 -0.19497712E+02 -0.13248248E+02 -0.67845141E+01 -0.19221269E+00  0.64426244E+01
  0.13034991E+02  0.19502222E+02  0.25765247E+02  0.31749752E+02  0.37387247E+02
  0.42616003E+02  0.47381848E+02  0.51638823E+02  0.55349676E+02  0.58486186E+02
  0.61029330E+02  0.62969285E+02  0.64305261E+02  0.65045193E+02  0.65205285E+02
  0.64809424E+02  0.63888486E+02  0.62479536E+02  0.60624957E+02  0.58371516E+02
  0.55769392E+02  0.52871184E+02  0.49730920E+02  0.46403081E+02  0.42941672E+02
  0.39399338E+02  0.35826550E+02  0.32270879E+02  0.28776353E+02  0.25382919E+02
  0.22126014E+02  0.19036234E+02  0.16139129E+02  0.13455094E+02  0.10999370E+02
  0.87821418E+01  0.68087348E+01  0.50798832E+01  0.35920786E+01  0.23379755E+01
  0.13068463E+01  0.48507152E+00 -0.14334629E+00 -0.59625870E+00 -0.89284836E+00
 -0.10531187E+01 -0.10974068E+01 -0.10459275E+01 -0.91835873E+00 -0.73347193E+00
 -0.50881456E+00 -0.26044719E+00 -0.27373859E-02  0.25178918E+00  0.49254129E+00
  0.71090059E+00  0.90020928E+00  0.10557114E+01  0.11744527E+01  0.12551455E+01
  0.12980043E+01  0.13045586E+01  0.12774504E+01  0.12202220E+01  0.11371011E+01
  0.10327886E+01  0.91225549E+00  0.78055150E+00  0.64263233E+00  0.50320643E+00
  0.36660488E+00  0.23667588E+00  0.11670439E+00  0.93572623E-02 -0.83346901E-01
 -0.16004456E+00 -0.22001245E+00 -0.26313366E+00 -0.28984726E+00 -0.30108445E+00
 -0.29819437E+00 -0.28286291E+00 -0.25702742E+00 -0.22279064E+00 -0.18233650E+00
 Real Space Part
  0.24537751E+03  0.24511963E+03  0.24434753E+03  0.24306582E+03  0.24128212E+03
  0.23900694E+03  0.23625360E+03  0.23303803E+03  0.22937856E+03  0.22529578E+03
  0.22081223E+03  0.21595217E+03  0.21074134E+03  0.20520669E+03  0.19937608E+03
  0.19327805E+03  0.18694158E+03  0.18039578E+03  0.17366972E+03  0.16679220E+03
  0.15979155E+03  0.15269545E+03  0.14553077E+03  0.13832348E+03  0.13109845E+03
  0.12387947E+03  0.11668907E+03  0.10954852E+03  0.10247782E+03  0.95495598E+02
  0.88619180E+02  0.81864558E+02  0.75246413E+02  0.68778150E+02  0.62471926E+02
  0.56338695E+02  0.50388254E+02  0.44629295E+02  0.39069460E+02  0.33715394E+02
  0.28572800E+02  0.23646498E+02  0.18940478E+02  0.14457952E+02  0.10201403E+02
  0.61726353E+01  0.23728163E+01 -0.11974836E+01 -0.45382537E+01 -0.76500119E+01
 -0.10533776E+02 -0.13191043E+02 -0.15623764E+02 -0.17834337E+02 -0.19825589E+02
 -0.21600776E+02 -0.23163572E+02 -0.24518074E+02 -0.25668802E+02 -0.26620706E+02
 -0.27379169E+02 -0.27950015E+02 -0.28339520E+02 -0.28554412E+02 -0.28601886E+02
 -0.28489599E+02 -0.28225678E+02 -0.27818712E+02 -0.27277745E+02 -0.26612267E+02
 -0.25832190E+02 -0.24947824E+02 -0.23969846E+02 -0.22909256E+02 -0.21777328E+02
 -0.20585557E+02 -0.19345592E+02 -0.18069165E+02 -0.16768015E+02 -0.15453800E+02
 -0.14138014E+02 -0.12831892E+02 -0.11546314E+02 -0.10291720E+02 -0.90780057E+01
 -0.79144419E+01 -0.68095852E+01 -0.57712007E+01 -0.48061906E+01 -0.39205338E+01
 -0.31192348E+01 -0.24062832E+01 -0.17846272E+01 -0.12561607E+01 -0.82171747E+00
 -0.48108483E+00 -0.23301848E+00 -0.75346226E-01 -0.55553491E-02  0.00000000E+00
 Non local Part
           1           2   1.40630992970447     
  0.641170141206125       0.958100427168201       0.958100427168201     
   1.39882749796357     
 Reciprocal Space Part
  0.00000000E+00  0.30586448E+01  0.60486155E+01  0.89025968E+01  0.11555962E+02
  0.13948047E+02  0.16023342E+02  0.17732571E+02  0.19033650E+02  0.19892484E+02
  0.20283612E+02  0.20190658E+02  0.19606610E+02  0.18533901E+02  0.16984298E+02
  0.14978605E+02  0.12546189E+02  0.97243374E+01  0.65574579E+01  0.30961537E+01
 -0.60382120E+00 -0.44826930E+01 -0.84778644E+01 -0.12525150E+02 -0.16560021E+02
 -0.20518842E+02 -0.24340059E+02 -0.27965336E+02 -0.31340588E+02 -0.34416928E+02
 -0.37151473E+02 -0.39508021E+02 -0.41457577E+02 -0.42978722E+02 -0.44057821E+02
 -0.44689069E+02 -0.44874383E+02 -0.44623141E+02 -0.43951775E+02 -0.42883244E+02
 -0.41446387E+02 -0.39675177E+02 -0.37607908E+02 -0.35286308E+02 -0.32754634E+02
 -0.30058729E+02 -0.27245102E+02 -0.24360018E+02 -0.21448639E+02 -0.18554215E+02
 -0.15717361E+02 -0.12975405E+02 -0.10361848E+02 -0.79059205E+01 -0.56322464E+01
 -0.35606272E+01 -0.17059314E+01 -0.78095088E-01  0.13177737E+01  0.24811949E+01
  0.34160283E+01  0.41301102E+01  0.46348249E+01  0.49446258E+01  0.50765187E+01
  0.50495213E+01  0.48841130E+01  0.46016874E+01  0.42240209E+01  0.37727687E+01
  0.32689969E+01  0.27327624E+01  0.21827443E+01  0.16359348E+01  0.11073924E+01
  0.61005878E+00  0.15464066E+00 -0.25044552E+00 -0.59906863E+00 -0.88732197E+00
 -0.11134117E+01 -0.12775014E+01 -0.13815186E+01 -0.14289331E+01 -0.14245123E+01
 -0.13740640E+01 -0.12841718E+01 -0.11619338E+01 -0.10147083E+01 -0.84987439E+00
 -0.67461328E+00 -0.49571322E+00 -0.31940304E+00 -0.15121595E+00  0.41145755E-02
  0.14272641E+00  0.26166844E+00  0.35890950E+00  0.43331883E+00  0.48462076E+00
 Real Space Part
  0.00000000E+00 -0.44635011E+01 -0.89121612E+01 -0.13331193E+02 -0.17705918E+02
 -0.22021817E+02 -0.26264586E+02 -0.30420184E+02 -0.34474885E+02 -0.38415324E+02
 -0.42228548E+02 -0.45902057E+02 -0.49423845E+02 -0.52782446E+02 -0.55966969E+02
 -0.58967135E+02 -0.61773313E+02 -0.64376549E+02 -0.66768600E+02 -0.68941959E+02
 -0.70889882E+02 -0.72606416E+02 -0.74086416E+02 -0.75325569E+02 -0.76320414E+02
 -0.77068356E+02 -0.77567687E+02 -0.77817593E+02 -0.77818175E+02 -0.77570450E+02
 -0.77076368E+02 -0.76338816E+02 -0.75361621E+02 -0.74149556E+02 -0.72708336E+02
 -0.71044623E+02 -0.69166013E+02 -0.67081034E+02 -0.64799133E+02 -0.62330659E+02
 -0.59686848E+02 -0.56879799E+02 -0.53922444E+02 -0.50828519E+02 -0.47612524E+02
 -0.44289678E+02 -0.40875871E+02 -0.37387609E+02 -0.33841944E+02 -0.30256409E+02
 -0.26648935E+02 -0.23037767E+02 -0.19441368E+02 -0.15878315E+02 -0.12367188E+02
 -0.89264501E+01 -0.55743227E+01 -0.23286482E+01  0.79324940E+00  0.37747112E+01
  0.65998940E+01  0.92539244E+01  0.11723054E+02  0.13994813E+02  0.16058162E+02
  0.17903642E+02  0.19523504E+02  0.20911847E+02  0.22064725E+02  0.22980246E+02
  0.23658650E+02  0.24102362E+02  0.24316026E+02  0.24306497E+02  0.24082823E+02
  0.23656175E+02  0.23039764E+02  0.22248703E+02  0.21299862E+02  0.20211666E+02
  0.19003884E+02  0.17697377E+02  0.16313834E+02  0.14875479E+02  0.13404771E+02
  0.11924092E+02  0.10455432E+02  0.90200781E+01  0.76383125E+01  0.63291215E+01
  0.51099300E+01  0.39963554E+01  0.30019949E+01  0.21382476E+01  0.14141636E+01
  0.83634236E+00  0.40885223E+00  0.13330988E+00  0.97049104E-02  0.00000000E+00
 Reciprocal Space Part
  0.00000000E+00 -0.12972581E+01 -0.25603905E+01 -0.37559755E+01 -0.48519844E+01
 -0.58184409E+01 -0.66280356E+01 -0.72566848E+01 -0.76840195E+01 -0.78937960E+01
 -0.78742182E+01 -0.76181672E+01 -0.71233310E+01 -0.63922355E+01 -0.54321735E+01
 -0.42550362E+01 -0.28770512E+01 -0.13184327E+01  0.39704707E+00  0.22425556E+01
  0.41887552E+01  0.62044041E+01  0.82569880E+01  0.10313371E+02  0.12340450E+02
  0.14305797E+02  0.16178283E+02  0.17928658E+02  0.19530089E+02  0.20958639E+02
  0.22193671E+02  0.23218189E+02  0.24019085E+02  0.24587316E+02  0.24917980E+02
  0.25010317E+02  0.24867625E+02  0.24497090E+02  0.23909550E+02  0.23119184E+02
  0.22143150E+02  0.21001167E+02  0.19715063E+02  0.18308294E+02  0.16805442E+02
  0.15231713E+02  0.13612438E+02  0.11972592E+02  0.10336333E+02  0.87265796E+01
  0.71646364E+01  0.56698577E+01  0.42593736E+01  0.29478713E+01  0.17474376E+01
  0.66746257E+00 -0.28539561E+00 -0.11071871E+01 -0.17965909E+01 -0.23547844E+01
 -0.27852660E+01 -0.30936391E+01 -0.32873620E+01 -0.33754728E+01 -0.33682958E+01
 -0.32771376E+01 -0.31139801E+01 -0.28911777E+01 -0.26211655E+01 -0.23161849E+01
 -0.19880312E+01 -0.16478286E+01 -0.13058368E+01 -0.97128924E+00 -0.65226904E+00
 -0.35561923E+00 -0.86889891E-01  0.14967997E+00  0.35114743E+00  0.51582011E+00
  0.64318320E+00  0.73380292E+00  0.78921029E+00  0.81176966E+00  0.80453644E+00
  0.77110846E+00  0.71547530E+00  0.64186969E+00  0.55462487E+00  0.45804118E+00
  0.35626480E+00  0.25318113E+00  0.15232461E+00  0.56806125E-01 -0.30741164E-01
 -0.10819750E+00 -0.17397417E+00 -0.22701384E+00 -0.26677515E+00 -0.29320292E+00
 Real Space Part
  0.00000000E+00  0.20303407E+01  0.40566707E+01  0.60749555E+01  0.80811136E+01
  0.10070995E+02  0.12040364E+02  0.13984880E+02  0.15900090E+02  0.17781417E+02
  0.19624160E+02  0.21423495E+02  0.23174483E+02  0.24872081E+02  0.26511158E+02
  0.28086521E+02  0.29592935E+02  0.31025158E+02  0.32377974E+02  0.33646224E+02
  0.34824853E+02  0.35908941E+02  0.36893753E+02  0.37774775E+02  0.38547762E+02
  0.39208774E+02  0.39754221E+02  0.40180900E+02  0.40486039E+02  0.40667324E+02
  0.40722940E+02  0.40651599E+02  0.40452570E+02  0.40125702E+02  0.39671447E+02
  0.39090881E+02  0.38385715E+02  0.37558311E+02  0.36611686E+02  0.35549517E+02
  0.34376143E+02  0.33096559E+02  0.31716407E+02  0.30241962E+02  0.28680119E+02
  0.27038367E+02  0.25324761E+02  0.23547894E+02  0.21716856E+02  0.19841193E+02
  0.17930857E+02  0.15996157E+02  0.14047694E+02  0.12096301E+02  0.10152968E+02
  0.82287702E+01  0.63347867E+01  0.44820119E+01  0.26812677E+01  0.94310832E+00
 -0.72227683E+00 -0.23051628E+01 -0.37963901E+01 -0.51874661E+01 -0.64706646E+01
 -0.76391236E+01 -0.86869379E+01 -0.96092469E+01 -0.10402313E+02 -0.11063593E+02
 -0.11591794E+02 -0.11986919E+02 -0.12250298E+02 -0.12384599E+02 -0.12393824E+02
 -0.12283286E+02 -0.12059562E+02 -0.11730432E+02 -0.11304794E+02 -0.10792558E+02
 -0.10204525E+02 -0.95522481E+01 -0.88478781E+01 -0.81039943E+01 -0.73334289E+01
 -0.65490829E+01 -0.57637391E+01 -0.49898751E+01 -0.42394808E+01 -0.35238817E+01
 -0.28535752E+01 -0.22380777E+01 -0.16857907E+01 -0.12038867E+01 -0.79821027E+00
 -0.47320834E+00 -0.23187298E+00 -0.75775811E-01 -0.55268059E-02  0.00000000E+00
 Non local Part
           2           1   1.40630992970447     
   4.26461094829617     
 Reciprocal Space Part
  0.00000000E+00  0.23877064E-01  0.95064162E-01  0.21223769E+00  0.37322041E+00
  0.57502391E+00  0.81390687E+00  0.10854478E+01  0.13846306E+01  0.17059416E+01
  0.20434755E+01  0.23910481E+01  0.27423140E+01  0.30908861E+01  0.34304550E+01
  0.37549054E+01  0.40584278E+01  0.43356230E+01  0.45815965E+01  0.47920427E+01
  0.49633160E+01  0.50924881E+01  0.51773903E+01  0.52166404E+01  0.52096542E+01
  0.51566403E+01  0.50585810E+01  0.49171975E+01  0.47349018E+01  0.45147369E+01
  0.42603054E+01  0.39756895E+01  0.36653638E+01  0.33341027E+01  0.29868846E+01
  0.26287956E+01  0.22649329E+01  0.19003121E+01  0.15397790E+01  0.11879270E+01
  0.84902351E+00  0.52694459E+00  0.22512007E+00 -0.53510338E-01 -0.30652957E+00
 -0.53206399E+00 -0.72879251E+00 -0.89594428E+00 -0.10332855E+01 -0.11410959E+01
 -0.12201365E+01 -0.12716086E+01 -0.12971060E+01 -0.12985622E+01 -0.12781929E+01
 -0.12384359E+01 -0.11818899E+01 -0.11112532E+01 -0.10292641E+01 -0.93864364E+00
 -0.84204270E+00 -0.74199326E+00 -0.64086573E+00 -0.54083230E+00 -0.44383707E+00
 -0.35157315E+00 -0.26546685E+00 -0.18666893E+00 -0.11605261E+00 -0.54218022E-01
 -0.15025458E-02  0.42003580E-01  0.76437084E-01  0.10213773E+00  0.11962142E+00
  0.12955128E+00  0.13270741E+00  0.12995635E+00  0.12222084E+00  0.11045078E+00
  0.95595859E-01  0.78580642E-01  0.60282344E-01  0.41511843E-01  0.22998083E-01
  0.53760559E-02 -0.10821606E-01 -0.25169480E-01 -0.37350791E-01 -0.47155674E-01
 -0.54476555E-01 -0.59301013E-01 -0.61702524E-01 -0.61829521E-01 -0.59893216E-01
 -0.56154649E-01 -0.50911378E-01 -0.44484263E-01 -0.37204697E-01 -0.29402661E-01
 Real Space Part
  0.00000000E+00 -0.49508800E-02 -0.19720382E-01 -0.44060478E-01 -0.77562377E-01
 -0.11966329E+00 -0.16965566E+00 -0.22669872E+00 -0.28983196E+00 -0.35799033E+00
 -0.43002088E+00 -0.50470029E+00 -0.58075316E+00 -0.65687059E+00 -0.73172869E+00
 -0.80400677E+00 -0.87240493E+00 -0.93566064E+00 -0.99256437E+00 -0.10419737E+01
 -0.10828264E+01 -0.11141514E+01 -0.11350786E+01 -0.11448470E+01 -0.11428111E+01
 -0.11284458E+01 -0.11013498E+01 -0.10612473E+01 -0.10079889E+01 -0.94155044E+00
 -0.86203153E+00 -0.76965243E+00 -0.66475026E+00 -0.54777432E+00 -0.41928072E+00
 -0.27992635E+00 -0.13046235E+00  0.28272882E-01  0.19536108E+00  0.36981176E+00
  0.55057015E+00  0.73652537E+00  0.92651864E+00  0.11193518E+01  0.13137958E+01
  0.15085993E+01  0.17024973E+01  0.18942199E+01  0.20825010E+01  0.22660872E+01
  0.24437463E+01  0.26142763E+01  0.27765140E+01  0.29293435E+01  0.30717053E+01
  0.32026042E+01  0.33211181E+01  0.34264057E+01  0.35177146E+01  0.35943888E+01
  0.36558758E+01  0.37017330E+01  0.37316338E+01  0.37453732E+01  0.37428716E+01
  0.37241791E+01  0.36894773E+01  0.36390812E+01  0.35734390E+01  0.34931305E+01
  0.33988651E+01  0.32914766E+01  0.31719179E+01  0.30412536E+01  0.29006503E+01
  0.27513666E+01  0.25947409E+01  0.24321775E+01  0.22651325E+01  0.20950978E+01
  0.19235847E+01  0.17521068E+01  0.15821626E+01  0.14152184E+01  0.12526911E+01
  0.10959318E+01  0.94621034E+00  0.80470092E+00  0.67246921E+00  0.55046116E+00
  0.43949366E+00  0.34024691E+00  0.25325932E+00  0.17892445E+00  0.11748949E+00
  0.69056725E-01  0.33585248E-01  0.10906363E-01  0.81286067E-03  0.00000000E+00
 PAW radial sets
         435   1.27666626540612     
(5E20.12)                                
 augmentation charges (non sperical)
 -0.292062081881E+00 -0.369076213433E+00 -0.108102945750E+00 -0.204256087515E+00 -0.749841834830E-01
 -0.369076213433E+00 -0.466704501448E+00 -0.135458851067E+00 -0.256420098387E+00 -0.933083822024E-01
 -0.108102945750E+00 -0.135458851067E+00 -0.407149290418E-01 -0.750696060815E-01 -0.251609325059E-01
 -0.204256087515E+00 -0.256420098387E+00 -0.750696060815E-01 -0.139022194304E+00 -0.469821437000E-01
 -0.749841834830E-01 -0.933083822024E-01 -0.251609325059E-01 -0.469821437000E-01  0.697731758688E-01
 uccopancies in atom
  0.200000000238E+01  0.000000000000E+00  0.000000000000E+00  0.000000000000E+00  0.000000000000E+00
  0.000000000000E+00  0.000000000000E+00  0.000000000000E+00  0.000000000000E+00  0.000000000000E+00
  0.000000000000E+00  0.000000000000E+00  0.333333332668E+00  0.000000000000E+00  0.000000000000E+00
  0.000000000000E+00  0.000000000000E+00  0.000000000000E+00  0.000000000000E+00  0.000000000000E+00
  0.000000000000E+00  0.000000000000E+00  0.000000000000E+00  0.000000000000E+00  0.000000000000E+00
 grid
  0.480910501157E-04  0.493907301690E-04  0.507255346007E-04  0.520964126613E-04  0.535043392551E-04
  0.549503156338E-04  0.564353701082E-04  0.579605587796E-04  0.595269662908E-04  0.611357065977E-04
  0.627879237611E-04  0.644847927607E-04  0.662275203304E-04  0.680173458166E-04  0.698555420594E-04
  0.717434162981E-04  0.736823111007E-04  0.756736053184E-04  0.777187150666E-04  0.798190947318E-04
  0.819762380057E-04  0.841916789480E-04  0.864669930764E-04  0.888037984883E-04  0.912037570102E-04
  0.936685753805E-04  0.962000064627E-04  0.987998504925E-04  0.101469956357E-03  0.104212222911E-03
  0.107028600327E-03  0.109921091479E-03  0.112891753374E-03  0.115942698605E-03  0.119076096864E-03
  0.122294176477E-03  0.125599225990E-03  0.128993595802E-03  0.132479699829E-03  0.136060017225E-03
  0.139737094145E-03  0.143513545554E-03  0.147392057088E-03  0.151375386962E-03  0.155466367935E-03
  0.159667909321E-03  0.163982999060E-03  0.168414705843E-03  0.172966181291E-03  0.177640662201E-03
  0.182441472846E-03  0.187372027337E-03  0.192435832055E-03  0.197636488141E-03  0.202977694058E-03
  0.208463248223E-03  0.214097051704E-03  0.219883111000E-03  0.225825540885E-03  0.231928567338E-03
  0.238196530546E-03  0.244633887992E-03  0.251245217622E-03  0.258035221106E-03  0.265008727176E-03
  0.272170695065E-03  0.279526218029E-03  0.287080526971E-03  0.294838994164E-03  0.302807137067E-03
  0.310990622249E-03  0.319395269424E-03  0.328027055584E-03  0.336892119251E-03  0.345996764844E-03
  0.355347467162E-03  0.364950875986E-03  0.374813820813E-03  0.384943315707E-03  0.395346564292E-03
  0.406030964872E-03  0.417004115693E-03  0.428273820348E-03  0.439848093322E-03  0.451735165698E-03
  0.463943491006E-03  0.476481751237E-03  0.489358863015E-03  0.502583983939E-03  0.516166519098E-03
  0.530116127756E-03  0.544442730222E-03  0.559156514906E-03  0.574267945564E-03  0.589787768739E-03
  0.605727021404E-03  0.622097038810E-03  0.638909462548E-03  0.656176248828E-03  0.673909676981E-03
  0.692122358193E-03  0.710827244471E-03  0.730037637855E-03  0.749767199879E-03  0.770029961286E-03
  0.790840332004E-03  0.812213111396E-03  0.834163498784E-03  0.856707104256E-03  0.879859959771E-03
  0.903638530559E-03  0.928059726826E-03  0.953140915785E-03  0.978899934007E-03  0.100535510010E-02
  0.103252522774E-02  0.106042963906E-02  0.108908817836E-02  0.111852122626E-02  0.114874971417E-02
  0.117979513917E-02  0.121167957933E-02  0.124442570936E-02  0.127805681677E-02  0.131259681845E-02
  0.134807027763E-02  0.138450242136E-02  0.142191915850E-02  0.146034709807E-02  0.149981356823E-02
  0.154034663568E-02  0.158197512566E-02  0.162472864239E-02  0.166863759017E-02  0.171373319501E-02
  0.176004752678E-02  0.180761352207E-02  0.185646500760E-02  0.190663672425E-02  0.195816435181E-02
  0.201108453432E-02  0.206543490614E-02  0.212125411870E-02  0.217858186803E-02  0.223745892294E-02
  0.229792715404E-02  0.236002956351E-02  0.242381031568E-02  0.248931476843E-02  0.255658950548E-02
  0.262568236947E-02  0.269664249601E-02  0.276952034864E-02  0.284436775467E-02  0.292123794208E-02
  0.300018557734E-02  0.308126680434E-02  0.316453928425E-02  0.325006223656E-02  0.333789648120E-02
  0.342810448178E-02  0.352075039001E-02  0.361590009132E-02  0.371362125175E-02  0.381398336601E-02
  0.391705780694E-02  0.402291787626E-02  0.413163885672E-02  0.424329806559E-02  0.435797490967E-02
  0.447575094179E-02  0.459670991874E-02  0.472093786090E-02  0.484852311338E-02  0.497955640883E-02
  0.511413093201E-02  0.525234238604E-02  0.539428906044E-02  0.554007190105E-02  0.568979458180E-02
  0.584356357848E-02  0.600148824439E-02  0.616368088819E-02  0.633025685370E-02  0.650133460195E-02
  0.667703579545E-02  0.685748538467E-02  0.704281169692E-02  0.723314652762E-02  0.742862523399E-02
  0.762938683135E-02  0.783557409197E-02  0.804733364658E-02  0.826481608869E-02  0.848817608164E-02
  0.871757246861E-02  0.895316838559E-02  0.919513137738E-02  0.944363351676E-02  0.969885152682E-02
  0.996096690669E-02  0.102301660606E-01  0.105066404303E-01  0.107905866316E-01  0.110822065936E-01
  0.113817077029E-01  0.116893029506E-01  0.120052110841E-01  0.123296567626E-01  0.126628707165E-01
  0.130050899121E-01  0.133565577198E-01  0.137175240868E-01  0.140882457158E-01  0.144689862465E-01
  0.148600164438E-01  0.152616143901E-01  0.156740656832E-01  0.160976636390E-01  0.165327095007E-01
  0.169795126525E-01  0.174383908399E-01  0.179096703957E-01  0.183936864718E-01  0.188907832779E-01
  0.194013143260E-01  0.199256426818E-01  0.204641412232E-01  0.210171929052E-01  0.215851910323E-01
  0.221685395382E-01  0.227676532731E-01  0.233829582986E-01  0.240148921910E-01  0.246639043520E-01
  0.253304563289E-01  0.260150221421E-01  0.267180886229E-01  0.274401557594E-01  0.281817370518E-01
  0.289433598782E-01  0.297255658691E-01  0.305289112928E-01  0.313539674511E-01  0.322013210853E-01
  0.330715747937E-01  0.339653474601E-01  0.348832746938E-01  0.358260092817E-01  0.367942216526E-01
  0.377886003539E-01  0.388098525413E-01  0.398587044814E-01  0.409359020689E-01  0.420422113563E-01
  0.431784190990E-01  0.443453333149E-01  0.455437838588E-01  0.467746230126E-01  0.480387260918E-01
  0.493369920672E-01  0.506703442049E-01  0.520397307228E-01  0.534461254644E-01  0.548905285919E-01
  0.563739672973E-01  0.578974965329E-01  0.594621997614E-01  0.610691897267E-01  0.627196092448E-01
  0.644146320170E-01  0.661554634643E-01  0.679433415845E-01  0.697795378331E-01  0.716653580269E-01
  0.736021432731E-01  0.755912709229E-01  0.776341555508E-01  0.797322499610E-01  0.818870462199E-01
  0.841000767181E-01  0.863729152593E-01  0.887071781801E-01  0.911045254992E-01  0.935666620978E-01
  0.960953389325E-01  0.986923542799E-01  0.101359555016E+00  0.104098837929E+00  0.106912151070E+00
  0.109801495134E+00  0.112768924889E+00  0.115816550631E+00  0.118946539690E+00  0.122161117968E+00
  0.125462571522E+00  0.128853248191E+00  0.132335559267E+00  0.135911981207E+00  0.139585057393E+00
  0.143357399948E+00  0.147231691583E+00  0.151210687515E+00  0.155297217419E+00  0.159494187444E+00
  0.163804582279E+00  0.168231467276E+00  0.172777990627E+00  0.177447385609E+00  0.182242972876E+00
  0.187168162825E+00  0.192226458023E+00  0.197421455691E+00  0.202756850269E+00  0.208236436041E+00
  0.213864109832E+00  0.219643873779E+00  0.225579838182E+00  0.231676224420E+00  0.237937367959E+00
  0.244367721431E+00  0.250971857802E+00  0.257754473627E+00  0.264720392383E+00  0.271874567908E+00
  0.279222087915E+00  0.286768177619E+00  0.294518203444E+00  0.302477676848E+00  0.310652258235E+00
  0.319047760986E+00  0.327670155590E+00  0.336525573890E+00  0.345620313447E+00  0.354960842013E+00
  0.364553802137E+00  0.374406015882E+00  0.384524489684E+00  0.394916419327E+00  0.405589195065E+00
  0.416550406879E+00  0.427807849869E+00  0.439369529803E+00  0.451243668807E+00  0.463438711213E+00
  0.475963329566E+00  0.488826430788E+00  0.502037162517E+00  0.515604919606E+00  0.529539350811E+00
  0.543850365647E+00  0.558548141439E+00  0.573643130558E+00  0.589146067855E+00  0.605067978295E+00
  0.621420184794E+00  0.638214316279E+00  0.655462315951E+00  0.673176449780E+00  0.691369315230E+00
  0.710053850218E+00  0.729243342310E+00  0.748951438176E+00  0.769192153294E+00  0.789979881912E+00
  0.811329407293E+00  0.833255912220E+00  0.855774989799E+00  0.878902654545E+00  0.902655353772E+00
  0.927049979289E+00  0.952103879414E+00  0.977834871309E+00  0.100426125365E+01  0.103140181965E+01
  0.105927587041E+01  0.108790322865E+01  0.111730425281E+01  0.114749985152E+01  0.117851149848E+01
  0.121036124772E+01  0.124307174931E+01  0.127666626541E+01  0.131116868687E+01  0.134660355022E+01
  0.138299605505E+01  0.142037208203E+01  0.145875821123E+01  0.149818174108E+01  0.153867070775E+01
  0.158025390509E+01  0.162296090514E+01  0.166682207912E+01  0.171186861903E+01  0.175813255988E+01
  0.180564680242E+01  0.185444513655E+01  0.190456226538E+01  0.195603382985E+01  0.200889643414E+01
  0.206318767167E+01  0.211894615181E+01  0.217621152740E+01  0.223502452290E+01  0.229542696336E+01
  0.235746180416E+01  0.242117316160E+01  0.248660634420E+01  0.255380788499E+01  0.262282557456E+01
  0.269370849507E+01  0.276650705513E+01  0.284127302569E+01  0.291805957679E+01  0.299692131546E+01
  0.307791432446E+01  0.316109620225E+01  0.324652610387E+01  0.333426478310E+01  0.342437463557E+01
  0.351691974320E+01  0.361196591974E+01  0.370958075759E+01  0.380983367585E+01  0.391279596973E+01
  0.401854086119E+01  0.412714355105E+01  0.423868127246E+01  0.435323334585E+01  0.447088123529E+01
  0.459170860645E+01  0.471580138613E+01  0.484324782330E+01  0.497413855190E+01  0.510856665532E+01
 aepotential
  0.129031837781E+05  0.130216609663E+05  0.131269403207E+05  0.132184623715E+05  0.132957352777E+05
  0.133583237240E+05  0.134058628922E+05  0.134380611887E+05  0.134547032672E+05  0.134556483100E+05
  0.134408424085E+05  0.134103070238E+05  0.133641518275E+05  0.133025620949E+05  0.132258104024E+05
  0.131342381761E+05  0.130282708315E+05  0.129083994272E+05  0.127751778551E+05  0.126292299090E+05
  0.124712230193E+05  0.123018813392E+05  0.121219656391E+05  0.119322730191E+05  0.117336256759E+05
  0.115268682251E+05  0.113128527506E+05  0.110924467148E+05  0.108665022027E+05  0.106358768837E+05
  0.104014033238E+05  0.101639033215E+05  0.992416727117E+04  0.968296120770E+04  0.944101585050E+04
  0.919902120461E+04  0.895763688414E+04  0.871747123799E+04  0.847909733163E+04  0.824303784371E+04
  0.800977448123E+04  0.777974238806E+04  0.755333260584E+04  0.733089231789E+04  0.711272635265E+04
  0.689909810857E+04  0.669023174295E+04  0.648631375609E+04  0.628749518125E+04  0.609389373808E+04
  0.590559610993E+04  0.572266026586E+04  0.554511778284E+04  0.537297616729E+04  0.520622113201E+04
  0.504481881476E+04  0.488871791795E+04  0.473785175583E+04  0.459214019836E+04  0.445149150350E+04
  0.431580403396E+04  0.418496783981E+04  0.405886614904E+04  0.393737669962E+04  0.382037297832E+04
  0.370772533241E+04  0.359930198133E+04  0.349496989389E+04  0.339459560633E+04  0.329804588296E+04
  0.320518843342E+04  0.311589219716E+04  0.303002820586E+04  0.294746953664E+04  0.286809179208E+04
  0.279177366855E+04  0.271839657624E+04  0.264784527949E+04  0.258000792526E+04  0.251477600368E+04
  0.245204438809E+04  0.239171176420E+04  0.233367997369E+04  0.227785459905E+04  0.222414459457E+04
  0.217246236049E+04  0.212272372962E+04  0.207484770038E+04  0.202875664931E+04  0.198437592802E+04
  0.194163401799E+04  0.190046242307E+04  0.186079531806E+04  0.182256985035E+04  0.178572569794E+04
  0.175020509705E+04  0.171595286463E+04  0.168291607483E+04  0.165104411902E+04  0.162028859347E+04
  0.159060316190E+04  0.156194348163E+04  0.153426715021E+04  0.150753360204E+04  0.148170400121E+04
  0.145674121007E+04  0.143260967371E+04  0.140927538244E+04  0.138670577028E+04  0.136486967705E+04
  0.134373726368E+04  0.132327994945E+04  0.130347038869E+04  0.128428235860E+04  0.126569075442E+04
  0.124767151043E+04  0.123020157355E+04  0.121325880973E+04  0.119682206562E+04  0.118087093436E+04
  0.116538597514E+04  0.115034841283E+04  0.113574031140E+04  0.112154439090E+04  0.110774407221E+04
  0.109432345032E+04  0.108126719999E+04  0.106856062201E+04  0.105618955884E+04  0.104414040063E+04
  0.103240005163E+04  0.102095589748E+04  0.100979580264E+04  0.998908071628E+03  0.988281431720E+03
  0.977905016525E+03  0.967768353415E+03  0.957861333697E+03  0.948174204210E+03  0.938697548276E+03
  0.929422268621E+03  0.920339586456E+03  0.911441001071E+03  0.902718304785E+03  0.894163555610E+03
  0.885769062068E+03  0.877527387565E+03  0.869431322140E+03  0.861473885451E+03  0.853648308214E+03
  0.845948030047E+03  0.838366684656E+03  0.830898096013E+03  0.823536267120E+03  0.816275375672E+03
  0.809109764731E+03  0.802033936203E+03  0.795042546427E+03  0.788130396954E+03  0.781292432061E+03
  0.774523730808E+03  0.767819504583E+03  0.761175089807E+03  0.754585944918E+03  0.748047646260E+03
  0.741555883452E+03  0.735106456739E+03  0.728695272150E+03  0.722318340136E+03  0.715971773797E+03
  0.709651778062E+03  0.703354661427E+03  0.697076821789E+03  0.690814749612E+03  0.684565024857E+03
  0.678324318228E+03  0.672089385516E+03  0.665857070144E+03  0.659624302450E+03  0.653388096670E+03
  0.647145550968E+03  0.640893850790E+03  0.634630265957E+03  0.628352150379E+03  0.622056946064E+03
  0.615742179937E+03  0.609405469182E+03  0.603044518797E+03  0.596657125456E+03  0.590241179225E+03
  0.583794664197E+03  0.577315663982E+03  0.570802360570E+03  0.564253041432E+03  0.557666099097E+03
  0.551040038598E+03  0.544373478931E+03  0.537665158218E+03  0.530913940247E+03  0.524118817658E+03
  0.517278919303E+03  0.510393516718E+03  0.503462029975E+03  0.496484036926E+03  0.489459280231E+03
  0.482387676999E+03  0.475269328364E+03  0.468104529956E+03  0.460893783313E+03  0.453637808370E+03
  0.446337556147E+03  0.438994223382E+03  0.431609267213E+03  0.424184421315E+03  0.416721712485E+03
  0.409223478400E+03  0.401692385343E+03  0.394131446724E+03  0.386544041305E+03  0.378933930627E+03
  0.371305275680E+03  0.363662651062E+03  0.356011056319E+03  0.348355922946E+03  0.340703115288E+03
  0.333058924071E+03  0.325430050282E+03  0.317823577029E+03  0.310246927740E+03  0.302707807833E+03
  0.295214128694E+03  0.287773912604E+03  0.280395178812E+03  0.273085813526E+03  0.265853428343E+03
  0.258705216612E+03  0.251647822198E+03  0.244687240590E+03  0.237828780958E+03  0.231077123178E+03
  0.224436510898E+03  0.217911123030E+03  0.211505660105E+03  0.205226164930E+03  0.199081063077E+03
  0.193082355291E+03  0.187246821952E+03  0.181597034534E+03  0.176161855028E+03  0.170976176391E+03
  0.166079581107E+03  0.161513842246E+03  0.157319361793E+03  0.153530922304E+03  0.150173342015E+03
  0.147257718082E+03  0.144778871725E+03  0.142714406583E+03  0.141025531155E+03  0.139659557890E+03
  0.138553799171E+03  0.137640393263E+03  0.136851410813E+03  0.136123474863E+03  0.135401177705E+03
  0.134638890082E+03  0.133800980464E+03  0.132860861246E+03  0.131799437261E+03  0.130603478858E+03
  0.129264234184E+03  0.127776387723E+03  0.126137323730E+03  0.124346607589E+03  0.122405586713E+03
  0.120317063718E+03  0.118085008635E+03  0.115714311749E+03  0.113210579329E+03  0.110579978823E+03
  0.107829134260E+03  0.104965069931E+03  0.101995198457E+03  0.989273440203E+02  0.957697935522E+02
  0.925313708345E+02  0.892215195381E+02  0.858503904960E+02  0.824289181752E+02  0.789688727760E+02
  0.754828669545E+02  0.719842965981E+02  0.684871868609E+02  0.650059223235E+02  0.615548436592E+02
  0.581477215969E+02  0.547971549546E+02  0.515140110429E+02  0.483071130388E+02  0.451834850810E+02
  0.421495398344E+02  0.392135651382E+02  0.363896218345E+02  0.337023074897E+02  0.311911305267E+02
  0.289118881026E+02  0.269323822291E+02  0.253211157954E+02  0.241286061382E+02  0.233665336315E+02
  0.229923230843E+02  0.229097314258E+02  0.229911228978E+02  0.231137177998E+02  0.231902130259E+02
  0.231782745347E+02  0.230701867695E+02  0.228752751093E+02  0.226058965020E+02  0.222704108796E+02
  0.218716491802E+02  0.214082513094E+02  0.208768666267E+02  0.202741185265E+02  0.195978872718E+02
  0.188478844671E+02  0.180256824694E+02  0.171344298460E+02  0.161784421098E+02  0.151627966335E+02
  0.140929990124E+02  0.129747330911E+02  0.118137005003E+02  0.106155165821E+02  0.938566153859E+01
  0.812945748468E+01  0.685206648525E+01  0.555850053538E+01  0.425363351970E+01  0.294222035408E+01
  0.162890918532E+01  0.318260452453E+00 -0.985247427482E+00 -0.227720972769E+01 -0.355328625346E+01
 -0.480921555267E+01 -0.604082107884E+01 -0.724403482951E+01 -0.841491817334E+01 -0.954974450535E+01
 -0.106449655609E+02 -0.116973493459E+02 -0.127039978790E+02 -0.136624068776E+02 -0.145705098195E+02
 -0.154267005529E+02 -0.162298310583E+02 -0.169791775788E+02 -0.176743757354E+02 -0.183153288904E+02
 -0.189021033244E+02 -0.194348293415E+02 -0.199136344532E+02 -0.203386338736E+02 -0.207099952096E+02
 -0.210280792614E+02 -0.212936298584E+02 -0.215079694548E+02 -0.216731380916E+02 -0.217919316490E+02
 -0.218678097302E+02 -0.219047000137E+02 -0.219067359600E+02 -0.218779942962E+02 -0.218222800017E+02
 -0.217430180351E+02 -0.216430594248E+02 -0.215248791284E+02 -0.213905440843E+02 -0.212417259106E+02
 -0.210798167380E+02 -0.209060097357E+02 -0.207213336976E+02 -0.205267008347E+02 -0.203229295647E+02
 -0.201107741539E+02 -0.198909283889E+02 -0.196640277488E+02 -0.194306621082E+02 -0.191913605695E+02
 -0.189466002607E+02 -0.186967967799E+02 -0.184423105457E+02 -0.181834471459E+02 -0.179204656918E+02
 -0.176535894761E+02 -0.173830198184E+02 -0.171089518616E+02 -0.168315910057E+02 -0.165511681460E+02
 -0.162679522819E+02 -0.159822591747E+02 -0.156944553519E+02 -0.154049572692E+02 -0.151142260442E+02
 -0.148227586189E+02 -0.145310765414E+02 -0.142397136467E+02 -0.139492038166E+02 -0.136600701056E+02
 -0.133728157654E+02 -0.130879175633E+02 -0.128058232873E+02 -0.125269472336E+02 -0.122516746536E+02
 -0.119803614720E+02 -0.117133372151E+02 -0.114509070166E+02 -0.111933524041E+02 -0.109409302401E+02
 -0.106938695095E+02 -0.104523660310E+02 -0.102165756229E+02 -0.998660662266E+01 -0.976251294213E+01
 -0.954428889577E+01 -0.933186687078E+01 -0.912511853295E+01 -0.892385974529E+01 -0.872785884065E+01
 -0.853684744191E+01 -0.835053274639E+01 -0.816861011910E+01 -0.799077495062E+01 -0.781673297675E+01
 core charge-density
  0.154602287412E-02  0.162821056938E-02  0.171476025689E-02  0.180590285310E-02  0.190188145084E-02
  0.200295195765E-02  0.210938376705E-02  0.222146046477E-02  0.233948057157E-02  0.246375832452E-02
  0.259462449874E-02  0.273242727170E-02  0.287753313206E-02  0.303032783563E-02  0.319121741043E-02
  0.336062921377E-02  0.353901304360E-02  0.372684230712E-02  0.392461524942E-02  0.413285624518E-02
  0.435211715667E-02  0.458297876120E-02  0.482605225174E-02  0.508198081413E-02  0.535144128484E-02
  0.563514589317E-02  0.593384409231E-02  0.624832448324E-02  0.657941683661E-02  0.692799421684E-02
  0.729497521397E-02  0.768132628820E-02  0.808806423285E-02  0.851625876129E-02  0.896703522420E-02
  0.944157746313E-02  0.994113080711E-02  0.104670052194E-01  0.110205786011E-01  0.116033002597E-01
  0.122166945501E-01  0.128623646964E-01  0.135419968029E-01  0.142573640636E-01  0.150103311794E-01
  0.158028589918E-01  0.166370093455E-01  0.175149501877E-01  0.184389609173E-01  0.194114379944E-01
  0.204349008217E-01  0.215119979121E-01  0.226455133524E-01  0.238383735797E-01  0.250936544820E-01
  0.264145888390E-01  0.278045741171E-01  0.292671806350E-01  0.308061601159E-01  0.324254546423E-01
  0.341292060323E-01  0.359217656532E-01  0.378077046935E-01  0.397918249104E-01  0.418791698733E-01
  0.440750367245E-01  0.463849884772E-01  0.488148668725E-01  0.513708058189E-01  0.540592454355E-01
  0.568869467242E-01  0.598610068938E-01  0.629888753613E-01  0.662783704559E-01  0.697376968508E-01
  0.733754637502E-01  0.772007038574E-01  0.812228931518E-01  0.854519715020E-01  0.898983641439E-01
  0.945730040508E-01  0.994873552244E-01  0.104653436936E+00  0.110083848946E+00  0.115791797726E+00
  0.121791123725E+00  0.128096329685E+00  0.134722610061E+00  0.141685881544E+00  0.149002814739E+00
  0.156690867002E+00  0.164768316474E+00  0.173254297322E+00  0.182168836228E+00  0.191532890112E+00
  0.201368385141E+00  0.211698257012E+00  0.222546492530E+00  0.233938172488E+00  0.245899515853E+00
  0.258457925250E+00  0.271642033751E+00  0.285481752947E+00  0.300008322294E+00  0.315254359700E+00
  0.331253913340E+00  0.348042514640E+00  0.365657232400E+00  0.384136727992E+00  0.403521311567E+00
  0.423852999197E+00  0.445175570856E+00  0.467534629146E+00  0.490977658643E+00  0.515554085732E+00
  0.541315338784E+00  0.568314908506E+00  0.596608408278E+00  0.626253634265E+00  0.657310625080E+00
  0.689841720745E+00  0.723911620657E+00  0.759587440278E+00  0.796938766182E+00  0.836037709123E+00
  0.876958954698E+00  0.919779811197E+00  0.964580254148E+00  0.101144296706E+01  0.106045337782E+01
  0.111169969014E+01  0.116527290939E+01  0.122126686227E+01  0.127977820933E+01  0.134090644987E+01
  0.140475391812E+01  0.147142576998E+01  0.154102995928E+01  0.161367720262E+01  0.168948093174E+01
  0.176855723219E+01  0.185102476728E+01  0.193700468596E+01  0.202662051338E+01  0.211999802278E+01
  0.221726508724E+01  0.231855150990E+01  0.242398883106E+01  0.253371011059E+01  0.264784968409E+01
  0.276654289105E+01  0.288992577335E+01  0.301813474234E+01  0.315130621282E+01  0.328957620210E+01
  0.343307989228E+01  0.358195115425E+01  0.373632203146E+01  0.389632218179E+01  0.406207827611E+01
  0.423371335173E+01  0.441134611948E+01  0.459509022305E+01  0.478505344946E+01  0.498133688970E+01
  0.518403404884E+01  0.539322990507E+01  0.560899991752E+01  0.583140898302E+01  0.606051034231E+01
  0.629634443665E+01  0.653893771634E+01  0.678830140297E+01  0.704443020810E+01  0.730730101144E+01
  0.757687150248E+01  0.785307879017E+01  0.813583798615E+01  0.842504076785E+01  0.872055392869E+01
  0.902221792383E+01  0.932984542056E+01  0.964321986408E+01  0.996209407002E+01  0.102861888568E+02
  0.106151917315E+02  0.109487556455E+02  0.112864978352E+02  0.116279987670E+02  0.119728012055E+02
  0.123204094249E+02  0.126702885859E+02  0.130218643016E+02  0.133745224153E+02  0.137276090156E+02
  0.140804307153E+02  0.144322552201E+02  0.147823122137E+02  0.151297945870E+02  0.154738600388E+02
  0.158136330736E+02  0.161482074228E+02  0.164766489157E+02  0.167979988200E+02  0.171112776761E+02
  0.174154896417E+02  0.177096273623E+02  0.179926773782E+02  0.182636260761E+02  0.185214661846E+02
  0.187652038112E+02  0.189938660083E+02  0.192065088504E+02  0.194022259952E+02  0.195801576940E+02
  0.197395002059E+02  0.198795155610E+02  0.199995416068E+02  0.200990022610E+02  0.201774178827E+02
  0.202344156614E+02  0.202697399132E+02  0.202832621590E+02  0.202749908524E+02  0.202450806094E+02
  0.201938407863E+02  0.201217432421E+02  0.200294291109E+02  0.199177144114E+02  0.197875943087E+02
  0.196402458484E+02  0.194770289827E+02  0.192994857099E+02  0.191093371615E+02  0.189084784782E+02
  0.186989713345E+02  0.184830339874E+02  0.182630287527E+02  0.180414468365E+02  0.178208904814E+02
  0.176040524265E+02  0.173936927140E+02  0.171926129237E+02  0.170036279574E+02  0.168295355475E+02
  0.166730837098E+02  0.165369364134E+02  0.164236377859E+02  0.163355752461E+02  0.162749419623E+02
  0.162436991162E+02  0.162435385119E+02  0.162758460813E+02  0.163416669046E+02  0.164416723926E+02
  0.165761303099E+02  0.167448783368E+02  0.169473018706E+02  0.171823167577E+02  0.174483576226E+02
  0.177433724117E+02  0.180648237055E+02  0.184096972678E+02  0.187745181972E+02  0.191553749274E+02
  0.195479512062E+02  0.199475660495E+02  0.203492215452E+02  0.207476582422E+02  0.211374177191E+02
  0.215129117714E+02  0.218684974965E+02  0.221985573901E+02  0.224975834088E+02  0.227602637971E+02
  0.229815713455E+02  0.231568516181E+02  0.232819095915E+02  0.233530930683E+02  0.233673711798E+02
  0.233224062691E+02  0.232166174605E+02  0.230492342679E+02  0.228203386771E+02  0.225308942654E+02
  0.221827610850E+02  0.217786952406E+02  0.213223323433E+02  0.208181543035E+02  0.202714392523E+02
  0.196881947320E+02  0.190750746811E+02  0.184392811388E+02  0.177884520084E+02  0.171305366291E+02
  0.164736613082E+02  0.158259873321E+02  0.151955643019E+02  0.145901818969E+02  0.140172233409E+02
  0.134835239120E+02  0.129952377726E+02  0.125577162010E+02  0.121753999251E+02  0.118517280684E+02
  0.115890651706E+02  0.113886480183E+02  0.112505539879E+02  0.111736910631E+02  0.111558124457E+02
  0.111935571300E+02  0.112825184006E+02  0.114173406910E+02  0.115918423762E+02  0.117991588500E+02
  0.120318986086E+02  0.122823059133E+02  0.125424256930E+02  0.128042679237E+02  0.130599690933E+02
  0.133019479871E+02  0.135230525480E+02  0.137166943030E+02  0.138769669495E+02  0.139987460550E+02
  0.140777674688E+02  0.141106828068E+02  0.140950912466E+02  0.140295477154E+02  0.139135483509E+02
  0.137474948289E+02  0.135326397076E+02  0.132710154278E+02  0.129653498885E+02  0.126189717527E+02
  0.122357086651E+02  0.118197815505E+02  0.113756979961E+02  0.109081474891E+02  0.104219009991E+02
  0.992171700978E+01  0.941225577279E+01  0.889800307842E+01  0.838320459177E+01  0.787181132490E+01
  0.736743622716E+01  0.687332215309E+01  0.639232061290E+01  0.592688074545E+01  0.547904751326E+01
  0.505046901668E+01  0.464241027631E+01  0.425577369503E+01  0.389112459325E+01  0.354872057011E+01
  0.322854359935E+01  0.293033375860E+01  0.265362357658E+01  0.239777207573E+01  0.216199770710E+01
  0.194540950290E+01  0.174703591580E+01  0.156585095906E+01  0.140079740867E+01  0.125080696619E+01
  0.111481739876E+01  0.991786772454E+00  0.880704956252E+00  0.780602615248E+00  0.690557921470E+00
  0.609701213284E+00  0.537217827010E+00  0.472349330394E+00  0.414393389517E+00  0.362702513865E+00
  0.316681926752E+00  0.275786451675E+00  0.239518095057E+00  0.207422574351E+00  0.179085207701E+00
  0.154127933633E+00  0.132206129498E+00  0.113005656979E+00  0.962401656725E-01  0.816486652561E-01
  0.689933599754E-01  0.580577282451E-01  0.486448227512E-01  0.405757628257E-01  0.336883895444E-01
  0.278360549307E-01  0.228865196458E-01  0.187209350925E-01  0.152328921044E-01  0.123275204553E-01
  0.992062806505E-02  0.793787218321E-02  0.631395794849E-02  0.499186232903E-02  0.392208351894E-02
  0.306191740140E-02  0.237476370847E-02  0.182946505689E-02  0.139968217011E-02  0.106330837642E-02
  0.801925974916E-03  0.600306364120E-03  0.445955009941E-03  0.328701465588E-03  0.240333809289E-03
  0.174276090381E-03  0.125306707083E-03  0.893151049934E-04  0.630937919096E-04  0.441624229192E-04
  0.306205784370E-04  0.210258683646E-04  0.142940852133E-04  0.961830129505E-05  0.640403163837E-05
  0.421784723850E-05  0.274710574988E-05  0.176875460857E-05  0.112544343440E-05  0.707449756680E-06
  0.439168512883E-06  0.269137531307E-06  0.162766399690E-06  0.971043972268E-07  0.571254073775E-07
  0.331257047611E-07  0.189265753634E-07  0.106505568474E-07  0.590044507304E-08  0.321680468881E-08
 kinetic energy-density
  0.208997760778E+04  0.209826782360E+04  0.210686340487E+04  0.211577280796E+04  0.212500474423E+04
  0.213456810577E+04  0.214447219181E+04  0.215472666006E+04  0.216534137532E+04  0.217632669461E+04
  0.218769326769E+04  0.219945215880E+04  0.221161489546E+04  0.222419336853E+04  0.223719999952E+04
  0.225064765730E+04  0.226454976899E+04  0.227892020199E+04  0.229377351172E+04  0.230912472330E+04
  0.232498954369E+04  0.234138432933E+04  0.235832607218E+04  0.237583244106E+04  0.239392193945E+04
  0.241261358484E+04  0.243192768250E+04  0.245188462905E+04  0.247250645751E+04  0.249381537909E+04
  0.251583507892E+04  0.253858984398E+04  0.256210523484E+04  0.258640763116E+04  0.261152444857E+04
  0.263748448325E+04  0.266431740540E+04  0.269205431211E+04  0.272072738238E+04  0.275037016656E+04
  0.278101760043E+04  0.281270595146E+04  0.284547299245E+04  0.287935801757E+04  0.291440187764E+04
  0.295064710048E+04  0.298813792311E+04  0.302692037262E+04  0.306704234094E+04  0.310855366768E+04
  0.315150622034E+04  0.319595398514E+04  0.324195315510E+04  0.328956222726E+04  0.333884210338E+04
  0.338985619505E+04  0.344267053390E+04  0.349735388661E+04  0.355397787620E+04  0.361261710479E+04
  0.367334929362E+04  0.373625540887E+04  0.380141981673E+04  0.386893042473E+04  0.393887884882E+04
  0.401136056101E+04  0.408647508153E+04  0.416432613780E+04  0.424502186569E+04  0.432867498790E+04
  0.441540303127E+04  0.450532854163E+04  0.459857924798E+04  0.469528843194E+04  0.479559494963E+04
  0.489964368222E+04  0.500758573179E+04  0.511957859142E+04  0.523578653892E+04  0.535638097447E+04
  0.548154050469E+04  0.561145149288E+04  0.574630830681E+04  0.588631357148E+04  0.603167863221E+04
  0.618262387978E+04  0.633937910844E+04  0.650218396086E+04  0.667128830504E+04  0.684695265883E+04
  0.702944861346E+04  0.721905932759E+04  0.741607995733E+04  0.762081813064E+04  0.783359455787E+04
  0.805474334589E+04  0.828461273839E+04  0.852356552931E+04  0.877197971075E+04  0.903024896516E+04
  0.929878339064E+04  0.957800999773E+04  0.986837338640E+04  0.101703364316E+05  0.104843808699E+05
  0.108110080639E+05  0.111507396096E+05  0.115041181197E+05  0.118717078877E+05  0.122540956530E+05
  0.126518913455E+05  0.130657288114E+05  0.134962666089E+05  0.139441887641E+05  0.144102055511E+05
  0.148950542454E+05  0.153994999722E+05  0.159243363612E+05  0.164703865044E+05  0.170385035367E+05
  0.176295714796E+05  0.182445060184E+05  0.188842551495E+05  0.195497999724E+05  0.202421551997E+05
  0.209623700529E+05  0.217115285476E+05  0.224907503672E+05  0.233011911802E+05  0.241440430410E+05
  0.250205349951E+05  0.259319331230E+05  0.268795409260E+05  0.278646994338E+05  0.288887871494E+05
  0.299532200475E+05  0.310594512441E+05  0.322089707824E+05  0.334033049681E+05  0.346440158088E+05
  0.359327000386E+05  0.372709881739E+05  0.386605431613E+05  0.401030588476E+05  0.416002583604E+05
  0.431538919000E+05  0.447657345493E+05  0.464375836176E+05  0.481712556944E+05  0.499685832962E+05
  0.518314112775E+05  0.537615926511E+05  0.557609841899E+05  0.578314413799E+05  0.599748130750E+05
  0.621929355731E+05  0.644876261581E+05  0.668606761552E+05  0.693138433821E+05  0.718488440257E+05
  0.744673438597E+05  0.771709489166E+05  0.799611954279E+05  0.828395391136E+05  0.858073437837E+05
  0.888658692622E+05  0.920162585364E+05  0.952595242864E+05  0.985965344515E+05  0.102027997621E+06
  0.105554446869E+06  0.109176223637E+06  0.112893460623E+06  0.116706063967E+06  0.120613694802E+06
  0.124615750438E+06  0.128711344701E+06  0.132899287956E+06  0.137178066711E+06  0.141545822978E+06
  0.146000333083E+06  0.150538986582E+06  0.155158765390E+06  0.159856222359E+06  0.164627460939E+06
  0.169468114482E+06  0.174373326823E+06  0.179337733270E+06  0.184355442570E+06  0.189420020520E+06
  0.194524474447E+06  0.199661240029E+06  0.204822169638E+06  0.209998523278E+06  0.215180961899E+06
  0.220359543756E+06  0.225523723897E+06  0.230662357092E+06  0.235763704827E+06  0.240815446296E+06
  0.245804693938E+06  0.250718013898E+06  0.255541451491E+06  0.260260562183E+06  0.264860448236E+06
  0.269325801385E+06  0.273640951527E+06  0.277789921960E+06  0.281756490931E+06  0.285524259891E+06
  0.289076728204E+06  0.292397374545E+06  0.295469744631E+06  0.298277545236E+06  0.300804744161E+06
  0.303035675804E+06  0.304955151821E+06  0.306548576341E+06  0.307802065053E+06  0.308702567341E+06
  0.309237990588E+06  0.309397325593E+06  0.309170772053E+06  0.308549862760E+06  0.307527585297E+06
  0.306098499638E+06  0.304258850390E+06  0.302006671765E+06  0.299341883986E+06  0.296266379169E+06
  0.292784095214E+06  0.288901075927E+06  0.284625515772E+06  0.279967787786E+06  0.274940453123E+06
  0.269558251058E+06  0.263838068275E+06  0.257798886653E+06  0.251461708850E+06  0.244849461508E+06
  0.237986875928E+06  0.230900346623E+06  0.223617768438E+06  0.216168353077E+06  0.208582426388E+06
  0.200891207841E+06  0.193126573693E+06  0.185320808872E+06  0.177506334011E+06  0.169715446150E+06
  0.161980029040E+06  0.154331270577E+06  0.146799377507E+06  0.139413294169E+06  0.132200430300E+06
  0.125186403255E+06  0.118394799875E+06  0.111846962693E+06  0.105561804321E+06  0.995556528140E+05
  0.938421298744E+05  0.884320628447E+05  0.833334308339E+05  0.785513447869E+05  0.740880609920E+05
  0.699430272998E+05  0.661129611888E+05  0.625919586677E+05  0.593716327379E+05  0.564412799417E+05
  0.537880728679E+05  0.513972764090E+05  0.492524845435E+05  0.473358745675E+05  0.456284748084E+05
  0.441104419233E+05  0.427613435317E+05  0.415604418641E+05  0.404869742766E+05  0.395204263825E+05
  0.386407939180E+05  0.378288297075E+05  0.370662722553E+05  0.363360530765E+05  0.356224801089E+05
  0.349113948877E+05  0.341903019084E+05  0.334484684756E+05  0.326769943423E+05  0.318688503889E+05
  0.310188861902E+05  0.301238068083E+05  0.291821192996E+05  0.281940501819E+05  0.271614353456E+05
  0.260875845279E+05  0.249771231289E+05  0.238358146354E+05  0.226703678061E+05  0.214882332449E+05
  0.202973945253E+05  0.191061591567E+05  0.179229544442E+05  0.167561308059E+05  0.156137767015E+05
  0.145035462376E+05  0.134324927256E+05  0.124069206579E+05  0.114322546753E+05  0.105129285227E+05
  0.965231256423E+04  0.885268344914E+04  0.811523992070E+04  0.744015895320E+04  0.682667849488E+04
  0.627319204242E+04  0.577734651469E+04  0.533614232944E+04  0.494603779580E+04  0.460305891996E+04
  0.430291338512E+04  0.404110581425E+04  0.381305092870E+04  0.361418121265E+04  0.344004617517E+04
  0.328640064715E+04  0.314928011696E+04  0.302506159773E+04  0.291050922977E+04  0.280280433130E+04
  0.269956042407E+04  0.259882408090E+04  0.249906318790E+04  0.239914434635E+04  0.229830140248E+04
  0.219609737957E+04  0.209238179534E+04  0.198724547374E+04  0.188097471374E+04  0.177400636872E+04
  0.166688526414E+04  0.156022496294E+04  0.145467281582E+04  0.135087893218E+04  0.124947152755E+04
  0.115103566784E+04  0.105609760924E+04  0.965113458791E+03  0.878461902963E+03  0.796441133265E+03
  0.719266684116E+03  0.647076090781E+03  0.579931565514E+03  0.517826361371E+03  0.460691905794E+03
  0.408405711938E+03  0.360799706194E+03  0.317668652990E+03  0.278778405346E+03  0.243873759032E+03
  0.212685729434E+03  0.184938118424E+03  0.160353276711E+03  0.138657013822E+03  0.119582643320E+03
  0.102874189829E+03  0.882888151874E+02  0.755985421606E+02  0.645913693323E+02  0.550718741486E+02
  0.468613839379E+02  0.397978052862E+02  0.337351574774E+02  0.285428821461E+02  0.241049679071E+02
  0.203189447085E+02  0.170950785755E+02  0.143540537016E+02  0.120276833302E+02  0.100565299104E+02
  0.838919128768E+01  0.698132674264E+01  0.579476549978E+01  0.479670254022E+01  0.395898123428E+01
  0.325746008045E+01  0.267145798212E+01  0.218327156672E+01  0.177775754267E+01  0.144197257562E+01
  0.116486366919E+01  0.937002480623E+00  0.750357351752E+00  0.598097616774E+00  0.474425520244E+00
  0.374431555706E+00  0.293969724977E+00  0.229549746871E+00  0.178243724423E+00  0.137605190490E+00
  0.105598801178E+00  0.805392371009E-01  0.610381124082E-01  0.459578861664E-01  0.343719272321E-01
  0.255300078947E-01  0.188285990904E-01  0.137854163343E-01  0.100177255559E-01  0.722396608649E-02
  0.516828802149E-02  0.366763558405E-02  0.258104099411E-02  0.180081951274E-02  0.124539105708E-02
  0.853476387126E-03  0.579446711304E-03  0.389631112668E-03  0.259411671058E-03  0.170959915922E-03
  0.111490141095E-03  0.719249677181E-04  0.458862562534E-04  0.289400304305E-04  0.180375428535E-04
  0.111060970105E-04  0.675289626920E-05  0.405319449417E-05  0.240056473122E-05  0.140237381094E-05
  0.807738039172E-06  0.458513434916E-06  0.256403192433E-06  0.141187558613E-06  0.765208318998E-07
 mkinetic energy-density pseudized
  0.121182805872E-05  0.127821342965E-05  0.134823546951E-05  0.142209339932E-05  0.149999735363E-05
  0.158216897845E-05  0.166884206180E-05  0.176026319887E-05  0.185669249365E-05  0.195840429891E-05
  0.206568799682E-05  0.217884882220E-05  0.229820873103E-05  0.242410731640E-05  0.255690277471E-05
  0.269697292479E-05  0.284471628281E-05  0.300055319615E-05  0.316492703929E-05  0.333830547529E-05
  0.352118178636E-05  0.371407627725E-05  0.391753775565E-05  0.413214509357E-05  0.435850887430E-05
  0.459727312960E-05  0.484911717204E-05  0.511475752775E-05  0.539494997497E-05  0.569049169438E-05
  0.600222353713E-05  0.633103241719E-05  0.667785383472E-05  0.704367453765E-05  0.742953532914E-05
  0.783653402873E-05  0.826582859582E-05  0.871864042416E-05  0.919625781687E-05  0.970003965182E-05
  0.102314192478E-04  0.107919084424E-04  0.113831018935E-04  0.120066816162E-04  0.126644217683E-04
  0.133581936979E-04  0.140899712680E-04  0.148618364717E-04  0.156759853565E-04  0.165347342715E-04
  0.174405264584E-04  0.183959390023E-04  0.194036901639E-04  0.204666471137E-04  0.215878340886E-04
  0.227704409968E-04  0.240178324936E-04  0.253335575535E-04  0.267213595680E-04  0.281851869959E-04
  0.297292045969E-04  0.313578052809E-04  0.330756226066E-04  0.348875439637E-04  0.367987244791E-04
  0.388146016828E-04  0.409409109790E-04  0.431837019636E-04  0.455493556359E-04  0.480446025534E-04
  0.506765419808E-04  0.534526620883E-04  0.563808612560E-04  0.594694705458E-04  0.627272774040E-04
  0.661635506626E-04  0.697880669098E-04  0.736111383057E-04  0.776436419211E-04  0.818970506839E-04
  0.863834660210E-04  0.911156522874E-04  0.961070730824E-04  0.101371929555E-03  0.106925200806E-03
  0.112782686507E-03  0.118961051850E-03  0.125477874964E-03  0.132351696922E-03  0.139602074495E-03
  0.147249635791E-03  0.155316138947E-03  0.163824534025E-03  0.172799028316E-03  0.182265155205E-03
  0.192249846815E-03  0.202781510636E-03  0.213890110340E-03  0.225607251033E-03  0.237966269172E-03
  0.251002327409E-03  0.264752514631E-03  0.279255951478E-03  0.294553901645E-03  0.310689889275E-03
  0.327709822792E-03  0.345662125505E-03  0.364597873380E-03  0.384570940345E-03  0.405638151569E-03
  0.427859445122E-03  0.451298042507E-03  0.476020628517E-03  0.502097540956E-03  0.529602970748E-03
  0.558615173006E-03  0.589216689668E-03  0.621494584319E-03  0.655540689888E-03  0.691451869903E-03
  0.729330294059E-03  0.769283728886E-03  0.811425844327E-03  0.855876537124E-03  0.902762271902E-03
  0.952216440947E-03  0.100437974369E-02  0.105940058695E-02  0.111743550718E-02  0.117864961570E-02
  0.124321706849E-02  0.131132156154E-02  0.138315685348E-02  0.145892731674E-02  0.153884851894E-02
  0.162314783610E-02  0.171206509946E-02  0.180585327769E-02  0.190477919649E-02  0.200912429764E-02
  0.211918543949E-02  0.223527574145E-02  0.235772547462E-02  0.248688300121E-02  0.262311576548E-02
  0.276681133882E-02  0.291837852218E-02  0.307824850877E-02  0.324687611054E-02  0.342474105168E-02
  0.361234933306E-02  0.381023467133E-02  0.401896001683E-02  0.423911915461E-02  0.447133839305E-02
  0.471627834505E-02  0.497463580661E-02  0.524714573831E-02  0.553458335527E-02  0.583776633148E-02
  0.615755712485E-02  0.649486542942E-02  0.685065076192E-02  0.722592518976E-02  0.762175620845E-02
  0.803926977637E-02  0.847965351569E-02  0.894416008839E-02  0.943411075704E-02  0.995089914033E-02
  0.104959951742E-01  0.110709492894E-01  0.116773968180E-01  0.123170626402E-01  0.129917660862E-01
  0.137034261054E-01  0.144540667183E-01  0.152458227672E-01  0.160809459804E-01  0.169618113680E-01
  0.178909239683E-01  0.188709259613E-01  0.199046041722E-01  0.209948979840E-01  0.221449076832E-01
  0.233579032602E-01  0.246373336913E-01  0.259868367269E-01  0.274102492145E-01  0.289116179843E-01
  0.304952113298E-01  0.321655311143E-01  0.339273255374E-01  0.357856025981E-01  0.377456442917E-01
  0.398130215808E-01  0.419936101814E-01  0.442936072093E-01  0.467195487330E-01  0.492783282818E-01
  0.519772163613E-01  0.548238810305E-01  0.578264095977E-01  0.609933314955E-01  0.643336423989E-01
  0.678568296527E-01  0.715728990796E-01  0.754924032424E-01  0.796264712382E-01  0.839868401080E-01
  0.885858879466E-01  0.934366688051E-01  0.985529494807E-01  0.103949248295E+00  0.109640875968E+00
  0.115643978693E+00  0.121975583545E+00  0.128653646318E+00  0.135697101958E+00  0.143125917687E+00
  0.150961148996E+00  0.159224998637E+00  0.167940878770E+00  0.177133476449E+00  0.186828822595E+00
  0.197054364663E+00  0.207839043172E+00  0.219213372314E+00  0.231209524844E+00  0.243861421472E+00
  0.257204824989E+00  0.271277439359E+00  0.286119014052E+00  0.301771453845E+00  0.318278934404E+00
  0.335688023908E+00  0.354047811026E+00  0.373410039561E+00  0.393829250080E+00  0.415362928883E+00
  0.438071664643E+00  0.462019313113E+00  0.487273170253E+00  0.513904154200E+00  0.541986996464E+00
  0.571600442802E+00  0.602827464191E+00  0.635755478359E+00  0.670476582339E+00  0.707087796528E+00
  0.745691320750E+00  0.786394802804E+00  0.829311620048E+00  0.874561174504E+00  0.922269202050E+00
  0.972568096216E+00  0.102559724713E+01  0.108150339617E+01  0.114044100684E+01  0.120257265242E+01
  0.126806942092E+01  0.133711133786E+01  0.140988780733E+01  0.148659807180E+01  0.156745169122E+01
  0.165266904160E+01  0.174248183363E+01  0.183713365146E+01  0.193688051194E+01  0.204199144442E+01
  0.215274909107E+01  0.226945032779E+01  0.239240690527E+01  0.252194610999E+01  0.265841144449E+01
  0.280216332617E+01  0.295357980359E+01  0.311305728906E+01  0.328101130580E+01  0.345787724788E+01
  0.364411115051E+01  0.384019046799E+01  0.404661485605E+01  0.426390695468E+01  0.449261316714E+01
  0.473330442998E+01  0.498657696807E+01  0.525305302802E+01  0.553338158213E+01  0.582823899415E+01
  0.613832963679E+01  0.646438644984E+01  0.680717142588E+01  0.716747600968E+01  0.754612139475E+01
  0.794395869943E+01  0.836186900223E+01  0.880076321400E+01  0.926158176222E+01  0.974529405958E+01
  0.102528977264E+02  0.107854175329E+02  0.113439040246E+02  0.119294317891E+02  0.125430973202E+02
  0.131860164293E+02  0.138593211516E+02  0.145641560869E+02  0.153016741142E+02  0.160730314084E+02
  0.168793816879E+02  0.177218696118E+02  0.186016232425E+02  0.195197454824E+02  0.204773043891E+02
  0.214753222675E+02  0.225147634322E+02  0.235965205298E+02  0.247213993073E+02  0.258901017090E+02
  0.271032071860E+02  0.283611520988E+02  0.296642071012E+02  0.310124523956E+02  0.324057507596E+02
  0.338437182585E+02  0.353256925726E+02  0.368506988948E+02  0.384174133805E+02  0.400241241731E+02
  0.416686900720E+02  0.433484969680E+02  0.450604122398E+02  0.468007373878E+02  0.485651592758E+02
  0.503487004689E+02  0.521456692831E+02  0.539496103165E+02  0.557532564039E+02  0.575484831317E+02
  0.593262672689E+02  0.610766507100E+02  0.627887117928E+02  0.644505461356E+02  0.660492594463E+02
  0.675709750661E+02  0.690008593367E+02  0.703231681946E+02  0.715213186950E+02  0.725779894336E+02
  0.734752540371E+02  0.741947520149E+02  0.747179012644E+02  0.750261563578E+02  0.751013163644E+02
  0.749258853207E+02  0.744834874782E+02  0.737593380722E+02  0.727407684725E+02  0.714178021174E+02
  0.697837745070E+02  0.678359866507E+02  0.655763766570E+02  0.630121885590E+02  0.601566109663E+02
  0.570293507431E+02  0.536570987327E+02  0.500738357565E+02  0.463209180313E+02  0.424468722319E+02
  0.385068223395E+02  0.345614640559E+02  0.306754990907E+02  0.269154425137E+02  0.233467233964E+02
  0.200300142535E+02  0.170167507341E+02  0.143438422011E+02  0.120276289258E+02  0.100565299104E+02
  0.838919128768E+01  0.698132674264E+01  0.579476549978E+01  0.479670254022E+01  0.395898123428E+01
  0.325746008045E+01  0.267145798212E+01  0.218327156672E+01  0.177775754267E+01  0.144197257562E+01
  0.116486366919E+01  0.937002480623E+00  0.750357351752E+00  0.598097616774E+00  0.474425520244E+00
  0.374431555706E+00  0.293969724977E+00  0.229549746871E+00  0.178243724423E+00  0.137605190490E+00
  0.105598801178E+00  0.805392371009E-01  0.610381124082E-01  0.459578861664E-01  0.343719272321E-01
  0.255300078947E-01  0.188285990904E-01  0.137854163343E-01  0.100177255559E-01  0.722396608649E-02
  0.516828802149E-02  0.366763558405E-02  0.258104099411E-02  0.180081951274E-02  0.124539105708E-02
  0.853476387126E-03  0.579446711304E-03  0.389631112668E-03  0.259411671058E-03  0.170959915922E-03
  0.111490141095E-03  0.719249677181E-04  0.458862562534E-04  0.289400304305E-04  0.180375428535E-04
  0.111060970105E-04  0.675289626920E-05  0.405319449417E-05  0.240056473122E-05  0.140237381094E-05
  0.807738039172E-06  0.458513434916E-06  0.256403192433E-06  0.141187558613E-06  0.765208318998E-07
 local pseudopotential core
  0.781353329370E+01  0.781381222844E+01  0.781408381957E+01  0.781434826026E+01  0.781460573843E+01
  0.781485643709E+01  0.781510053418E+01  0.781533820332E+01  0.781556961362E+01  0.781579492923E+01
  0.781601431026E+01  0.781622791251E+01  0.781643588808E+01  0.781663838432E+01  0.781683554525E+01
  0.781702751090E+01  0.781721441743E+01  0.781739639763E+01  0.781757358079E+01  0.781774609260E+01
  0.781791405535E+01  0.781807758842E+01  0.781823680783E+01  0.781839182654E+01  0.781854275436E+01
  0.781868969830E+01  0.781883276259E+01  0.781897204857E+01  0.781910765505E+01  0.781923967789E+01
  0.781936821066E+01  0.781949334422E+01  0.781961516724E+01  0.781973376576E+01  0.781984922362E+01
  0.781996162232E+01  0.782007104135E+01  0.782017755777E+01  0.782028124670E+01  0.782038218131E+01
  0.782048043257E+01  0.782057606961E+01  0.782066915971E+01  0.782075976812E+01  0.782084795838E+01
  0.782093379235E+01  0.782101733006E+01  0.782109862987E+01  0.782117774853E+01  0.782125474102E+01
  0.782132966097E+01  0.782140256041E+01  0.782147348975E+01  0.782154249797E+01  0.782160963264E+01
  0.782167493998E+01  0.782173846469E+01  0.782180025013E+01  0.782186033851E+01  0.782191877039E+01
  0.782197558535E+01  0.782203082153E+01  0.782208451592E+01  0.782213670430E+01  0.782218742113E+01
  0.782223669975E+01  0.782228457237E+01  0.782233107001E+01  0.782237622247E+01  0.782242005859E+01
  0.782246260585E+01  0.782250389094E+01  0.782254393903E+01  0.782258277457E+01  0.782262042077E+01
  0.782265689969E+01  0.782269223243E+01  0.782272643892E+01  0.782275953803E+01  0.782279154753E+01
  0.782282248416E+01  0.782285236351E+01  0.782288120004E+01  0.782290900718E+01  0.782293579718E+01
  0.782296158116E+01  0.782298636910E+01  0.782301016983E+01  0.782303299096E+01  0.782305483893E+01
  0.782307571890E+01  0.782309563486E+01  0.782311458945E+01  0.782313258401E+01  0.782314961851E+01
  0.782316569159E+01  0.782318080043E+01  0.782319494074E+01  0.782320810674E+01  0.782322029108E+01
  0.782323148478E+01  0.782324167722E+01  0.782325085602E+01  0.782325900703E+01  0.782326611421E+01
  0.782327215962E+01  0.782327712324E+01  0.782328098301E+01  0.782328371468E+01  0.782328529168E+01
  0.782328568509E+01  0.782328486347E+01  0.782328279283E+01  0.782327943642E+01  0.782327475463E+01
  0.782326870492E+01  0.782326124160E+01  0.782325231568E+01  0.782324187480E+01  0.782322986297E+01
  0.782321622038E+01  0.782320088334E+01  0.782318378391E+01  0.782316484985E+01  0.782314400425E+01
  0.782312116543E+01  0.782309624659E+01  0.782306915560E+01  0.782303979471E+01  0.782300806025E+01
  0.782297384233E+01  0.782293702450E+01  0.782289748345E+01  0.782285508858E+01  0.782280970165E+01
  0.782276117638E+01  0.782270935802E+01  0.782265408286E+01  0.782259517783E+01  0.782253245992E+01
  0.782246573568E+01  0.782239480067E+01  0.782231943883E+01  0.782223942193E+01  0.782215450881E+01
  0.782206444478E+01  0.782196896080E+01  0.782186777280E+01  0.782176058075E+01  0.782164706792E+01
  0.782152689987E+01  0.782139972355E+01  0.782126516626E+01  0.782112283461E+01  0.782097231336E+01
  0.782081316424E+01  0.782064492471E+01  0.782046710665E+01  0.782027919493E+01  0.782008064595E+01
  0.781987088611E+01  0.781964931015E+01  0.781941527941E+01  0.781916812006E+01  0.781890712113E+01
  0.781863153249E+01  0.781834056275E+01  0.781803337694E+01  0.781770909421E+01  0.781736678525E+01
  0.781700546967E+01  0.781662411323E+01  0.781622162489E+01  0.781579685366E+01  0.781534858538E+01
  0.781487553925E+01  0.781437636418E+01  0.781384963493E+01  0.781329384811E+01  0.781270741786E+01
  0.781208867136E+01  0.781143584406E+01  0.781074707470E+01  0.781002040000E+01  0.780925374906E+01
  0.780844493754E+01  0.780759166141E+01  0.780669149040E+01  0.780574186116E+01  0.780474006993E+01
  0.780368326487E+01  0.780256843802E+01  0.780139241673E+01  0.780015185466E+01  0.779884322230E+01
  0.779746279699E+01  0.779600665234E+01  0.779447064712E+01  0.779285041354E+01  0.779114134487E+01
  0.778933858240E+01  0.778743700172E+01  0.778543119817E+01  0.778331547162E+01  0.778108381032E+01
  0.777872987391E+01  0.777624697554E+01  0.777362806296E+01  0.777086569864E+01  0.776795203877E+01
  0.776487881116E+01  0.776163729192E+01  0.775821828091E+01  0.775461207580E+01  0.775080844482E+01
  0.774679659797E+01  0.774256515668E+01  0.773810212193E+01  0.773339484052E+01  0.772842996962E+01
  0.772319343942E+01  0.771767041370E+01  0.771184524839E+01  0.770570144787E+01  0.769922161890E+01
  0.769238742215E+01  0.768517952117E+01  0.767757752856E+01  0.766955994937E+01  0.766110412148E+01
  0.765218615279E+01  0.764278085519E+01  0.763286167498E+01  0.762240061964E+01  0.761136818082E+01
  0.759973325328E+01  0.758746304959E+01  0.757452301046E+01  0.756087671036E+01  0.754648575835E+01
  0.753130969374E+01  0.751530587647E+01  0.749842937186E+01  0.748063282955E+01  0.746186635626E+01
  0.744207738225E+01  0.742121052099E+01  0.739920742194E+01  0.737600661596E+01  0.735154335325E+01
  0.732574943319E+01  0.729855302617E+01  0.726987848660E+01  0.723964615720E+01  0.720777216394E+01
  0.717416820137E+01  0.713874130805E+01  0.710139363162E+01  0.706202218329E+01  0.702051858128E+01
  0.697676878300E+01  0.693065280555E+01  0.688204443427E+01  0.683081091908E+01  0.677681265828E+01
  0.671990286959E+01  0.665992724830E+01  0.659672361216E+01  0.653012153319E+01  0.645994195604E+01
  0.638599680309E+01  0.630808856633E+01  0.622600988613E+01  0.613954311717E+01  0.604845988201E+01
  0.595252061258E+01  0.585147408044E+01  0.574505691654E+01  0.563299312141E+01  0.551499356707E+01
  0.539075549203E+01  0.525996199104E+01  0.512228150165E+01  0.497736728971E+01  0.482485693662E+01
  0.466437183118E+01  0.449551666957E+01  0.431787896742E+01  0.413102858821E+01  0.393451729325E+01
  0.372787831852E+01  0.351062598491E+01  0.328225534860E+01  0.304224189952E+01  0.279004131623E+01
  0.252508928701E+01  0.224680140719E+01  0.195457316456E+01  0.164778002506E+01  0.132577763261E+01
  0.987902137825E+00  0.633470671775E+00  0.261781982095E+00 -0.127882749738E+00 -0.536258889944E+00
 -0.964097111354E+00 -0.141216190682E+01 -0.188122983298E+01 -0.237208745883E+01 -0.288552899237E+01
 -0.342235355736E+01 -0.398336209119E+01 -0.456935383400E+01 -0.518112237850E+01 -0.581945124937E+01
 -0.648510898122E+01 -0.717884366395E+01 -0.790137692518E+01 -0.865339732026E+01 -0.943555310199E+01
 -0.102484443444E+02 -0.110926143972E+02 -0.119685406515E+02 -0.128766246013E+02 -0.138171811893E+02
 -0.147904274332E+02 -0.157964703329E+02 -0.168352940683E+02 -0.179067465040E+02 -0.190105250277E+02
 -0.201461617574E+02 -0.213130081651E+02 -0.225102191738E+02 -0.237367367982E+02 -0.249912734112E+02
 -0.262722947321E+02 -0.275780026460E+02 -0.289063179760E+02 -0.302548633493E+02 -0.316209463074E+02
 -0.330015428338E+02 -0.343932814838E+02 -0.357924283272E+02 -0.371948729318E+02 -0.385961156458E+02
 -0.399912564680E+02 -0.413749858315E+02 -0.427415776798E+02 -0.440848852692E+02 -0.453983402118E+02
 -0.466749553671E+02 -0.479073323099E+02 -0.490876742494E+02 -0.502078054578E+02 -0.512591984841E+02
 -0.522330106952E+02 -0.531201319923E+02 -0.539112459077E+02 -0.545969066818E+02 -0.551676353504E+02
 -0.556140383056E+02 -0.559269522082E+02 -0.560976194614E+02 -0.561178986352E+02 -0.559805141441E+02
 -0.556793489986E+02 -0.552097833751E+02 -0.545690798600E+02 -0.537568132107E+02 -0.527753379548E+02
 -0.516302805978E+02 -0.503310339968E+02 -0.488912189138E+02 -0.473290615744E+02 -0.456676171785E+02
 -0.439347515042E+02 -0.421627847583E+02 -0.403877190568E+02 -0.386481123379E+02 -0.369856799180E+02
 -0.354907719862E+02 -0.342135850281E+02 -0.331853251493E+02 -0.323054267723E+02 -0.316762510809E+02
 -0.313081921433E+02 -0.304688227899E+02 -0.296575236500E+02 -0.288693185828E+02 -0.281033218772E+02
 -0.273586683577E+02 -0.266346193873E+02 -0.259304447410E+02 -0.252454719015E+02 -0.245790702967E+02
 -0.239306471075E+02 -0.232996428622E+02 -0.226855279622E+02 -0.220877997068E+02 -0.215059794352E+02
 -0.209396101099E+02 -0.203882542579E+02 -0.198514921250E+02 -0.193289200945E+02 -0.188201493470E+02
 -0.183248046187E+02 -0.178425231677E+02 -0.173729540382E+02 -0.169157572739E+02 -0.164706028448E+02
 -0.160371712127E+02 -0.156151471708E+02 -0.152042399951E+02 -0.148041452577E+02 -0.144145809098E+02
 -0.140352691991E+02 -0.136659398565E+02 -0.133063298481E+02 -0.129561831843E+02 -0.126152506743E+02
 -0.122832897425E+02 -0.119600642210E+02 -0.116453442079E+02 -0.113389058399E+02 -0.110405311769E+02
 -0.107500080196E+02 -0.104671297522E+02 -0.101916952052E+02 -0.992350850230E+01 -0.966237892265E+01
 -0.940812076587E+01 -0.916055321674E+01 -0.891950021878E+01 -0.868479034727E+01 -0.845625668833E+01
 pspotential valence only
 -0.182398265465E+02 -0.182395475684E+02 -0.182392759316E+02 -0.182390114427E+02 -0.182387539137E+02
 -0.182385031614E+02 -0.182382590077E+02 -0.182380212789E+02 -0.182377898056E+02 -0.182375644237E+02
 -0.182373449726E+02 -0.182371312965E+02 -0.182369232431E+02 -0.182367206647E+02 -0.182365234170E+02
 -0.182363313600E+02 -0.182361443570E+02 -0.182359622751E+02 -0.182357849847E+02 -0.182356123598E+02
 -0.182354442776E+02 -0.182352806186E+02 -0.182351212664E+02 -0.182349661077E+02 -0.182348150321E+02
 -0.182346679323E+02 -0.182345247037E+02 -0.182343852443E+02 -0.182342494550E+02 -0.182341172392E+02
 -0.182339885030E+02 -0.182338631548E+02 -0.182337411055E+02 -0.182336222682E+02 -0.182335065585E+02
 -0.182333938942E+02 -0.182332841950E+02 -0.182331773830E+02 -0.182330733823E+02 -0.182329721189E+02
 -0.182328735209E+02 -0.182327775180E+02 -0.182326840421E+02 -0.182325930267E+02 -0.182325044071E+02
 -0.182324181204E+02 -0.182323341051E+02 -0.182322523015E+02 -0.182321726515E+02 -0.182320950985E+02
 -0.182320195874E+02 -0.182319460644E+02 -0.182318744773E+02 -0.182318047753E+02 -0.182317369089E+02
 -0.182316708297E+02 -0.182316064909E+02 -0.182315438467E+02 -0.182314828526E+02 -0.182314234653E+02
 -0.182313656427E+02 -0.182313093436E+02 -0.182312545280E+02 -0.182312011571E+02 -0.182311491929E+02
 -0.182310985986E+02 -0.182310493382E+02 -0.182310013768E+02 -0.182309546803E+02 -0.182309092157E+02
 -0.182308649506E+02 -0.182308218537E+02 -0.182307798945E+02 -0.182307390431E+02 -0.182306992707E+02
 -0.182306605490E+02 -0.182306228507E+02 -0.182305861491E+02 -0.182305504181E+02 -0.182305156326E+02
 -0.182304817678E+02 -0.182304488000E+02 -0.182304167057E+02 -0.182303854624E+02 -0.182303550480E+02
 -0.182303254411E+02 -0.182302966208E+02 -0.182302685668E+02 -0.182302412594E+02 -0.182302146794E+02
 -0.182301888081E+02 -0.182301636275E+02 -0.182301391198E+02 -0.182301152679E+02 -0.182300920553E+02
 -0.182300694656E+02 -0.182300474831E+02 -0.182300260927E+02 -0.182300052794E+02 -0.182299850288E+02
 -0.182299653270E+02 -0.182299461603E+02 -0.182299275157E+02 -0.182299093803E+02 -0.182298917418E+02
 -0.182298745882E+02 -0.182298579078E+02 -0.182298416894E+02 -0.182298259221E+02 -0.182298105953E+02
 -0.182297956990E+02 -0.182297812231E+02 -0.182297671583E+02 -0.182297534954E+02 -0.182297402255E+02
 -0.182297273400E+02 -0.182297148310E+02 -0.182297026904E+02 -0.182296909107E+02 -0.182296794848E+02
 -0.182296684056E+02 -0.182296576666E+02 -0.182296472615E+02 -0.182296371844E+02 -0.182296274295E+02
 -0.182296179916E+02 -0.182296088655E+02 -0.182296000466E+02 -0.182295915304E+02 -0.182295833129E+02
 -0.182295753902E+02 -0.182295677589E+02 -0.182295604159E+02 -0.182295533585E+02 -0.182295465840E+02
 -0.182295400905E+02 -0.182295338761E+02 -0.182295279395E+02 -0.182295222796E+02 -0.182295168956E+02
 -0.182295117874E+02 -0.182295069550E+02 -0.182295023988E+02 -0.182294981198E+02 -0.182294941194E+02
 -0.182294903991E+02 -0.182294869614E+02 -0.182294838088E+02 -0.182294809445E+02 -0.182294783721E+02
 -0.182294760960E+02 -0.182294741207E+02 -0.182294724515E+02 -0.182294710944E+02 -0.182294700558E+02
 -0.182294693428E+02 -0.182294689632E+02 -0.182294689255E+02 -0.182294692388E+02 -0.182294699130E+02
 -0.182294709589E+02 -0.182294723881E+02 -0.182294742129E+02 -0.182294764468E+02 -0.182294791039E+02
 -0.182294821995E+02 -0.182294857499E+02 -0.182294897726E+02 -0.182294942861E+02 -0.182294993101E+02
 -0.182295048658E+02 -0.182295109755E+02 -0.182295176629E+02 -0.182295249533E+02 -0.182295328735E+02
 -0.182295414520E+02 -0.182295507189E+02 -0.182295607061E+02 -0.182295714475E+02 -0.182295829790E+02
 -0.182295953386E+02 -0.182296085663E+02 -0.182296227049E+02 -0.182296377991E+02 -0.182296538967E+02
 -0.182296710478E+02 -0.182296893058E+02 -0.182297087268E+02 -0.182297293702E+02 -0.182297512988E+02
 -0.182297745789E+02 -0.182297992806E+02 -0.182298254779E+02 -0.182298532489E+02 -0.182298826762E+02
 -0.182299138468E+02 -0.182299468529E+02 -0.182299817916E+02 -0.182300187653E+02 -0.182300578824E+02
 -0.182300992571E+02 -0.182301430099E+02 -0.182301892681E+02 -0.182302381661E+02 -0.182302898456E+02
 -0.182303444561E+02 -0.182304021554E+02 -0.182304631101E+02 -0.182305274958E+02 -0.182305954980E+02
 -0.182306673122E+02 -0.182307431447E+02 -0.182308232132E+02 -0.182309077475E+02 -0.182309969896E+02
 -0.182310911953E+02 -0.182311906341E+02 -0.182312955903E+02 -0.182314063640E+02 -0.182315232716E+02
 -0.182316466469E+02 -0.182317768418E+02 -0.182319142277E+02 -0.182320591963E+02 -0.182322121606E+02
 -0.182323735563E+02 -0.182325438430E+02 -0.182327235052E+02 -0.182329130541E+02 -0.182331130286E+02
 -0.182333239973E+02 -0.182335465597E+02 -0.182337813481E+02 -0.182340290290E+02 -0.182342903057E+02
 -0.182345659195E+02 -0.182348566523E+02 -0.182351633285E+02 -0.182354868174E+02 -0.182358280357E+02
 -0.182361879499E+02 -0.182365675789E+02 -0.182369679974E+02 -0.182373903382E+02 -0.182378357955E+02
 -0.182383056288E+02 -0.182388011653E+02 -0.182393238047E+02 -0.182398750221E+02 -0.182404563728E+02
 -0.182410694962E+02 -0.182417161200E+02 -0.182423980658E+02 -0.182431172530E+02 -0.182438757049E+02
 -0.182446755538E+02 -0.182455190465E+02 -0.182464085509E+02 -0.182473465623E+02 -0.182483357095E+02
 -0.182493787626E+02 -0.182504786398E+02 -0.182516384154E+02 -0.182528613280E+02 -0.182541507887E+02
 -0.182555103904E+02 -0.182569439168E+02 -0.182584553526E+02 -0.182600488934E+02 -0.182617289568E+02
 -0.182635001932E+02 -0.182653674981E+02 -0.182673360240E+02 -0.182694111936E+02 -0.182715987128E+02
 -0.182739045851E+02 -0.182763351261E+02 -0.182788969785E+02 -0.182815971283E+02 -0.182844429211E+02
 -0.182874420792E+02 -0.182906027196E+02 -0.182939333723E+02 -0.182974429994E+02 -0.183011410150E+02
 -0.183050373056E+02 -0.183091422514E+02 -0.183134667477E+02 -0.183180222275E+02 -0.183228206843E+02
 -0.183278746960E+02 -0.183331974483E+02 -0.183388027597E+02 -0.183447051060E+02 -0.183509196459E+02
 -0.183574622460E+02 -0.183643495064E+02 -0.183715987865E+02 -0.183792282300E+02 -0.183872567902E+02
 -0.183957042546E+02 -0.184045912683E+02 -0.184139393573E+02 -0.184237709501E+02 -0.184341093975E+02
 -0.184449789909E+02 -0.184564049785E+02 -0.184684135779E+02 -0.184810319867E+02 -0.184942883883E+02
 -0.185082119541E+02 -0.185228328405E+02 -0.185381821801E+02 -0.185542920664E+02 -0.185711955319E+02
 -0.185889265172E+02 -0.186075198310E+02 -0.186270111008E+02 -0.186474367105E+02 -0.186688337275E+02
 -0.186912398140E+02 -0.187146931247E+02 -0.187392321868E+02 -0.187648957629E+02 -0.187917226936E+02
 -0.188197517202E+02 -0.188490212840E+02 -0.188795693031E+02 -0.189114329233E+02 -0.189446482432E+02
 -0.189792500131E+02 -0.190152713051E+02 -0.190527431565E+02 -0.190916941853E+02 -0.191321501788E+02
 -0.191741336576E+02 -0.192176634165E+02 -0.192627540468E+02 -0.193094154433E+02 -0.193576523042E+02
 -0.194074636290E+02 -0.194588422259E+02 -0.195117742396E+02 -0.195662387112E+02 -0.196222071884E+02
 -0.196796434000E+02 -0.197385030152E+02 -0.197987335076E+02 -0.198602741414E+02 -0.199230560995E+02
 -0.199870027672E+02 -0.200520301775E+02 -0.201180476150E+02 -0.201849583556E+02 -0.202526604952E+02
 -0.203210477840E+02 -0.203900103344E+02 -0.204594350027E+02 -0.205292051604E+02 -0.205991994588E+02
 -0.206692890540E+02 -0.207393325982E+02 -0.208091681205E+02 -0.208786007364E+02 -0.209473849651E+02
 -0.210152003593E+02 -0.210816192259E+02 -0.211460655595E+02 -0.212077650039E+02 -0.212656867728E+02
 -0.213184798982E+02 -0.213644076012E+02 -0.214012843219E+02 -0.214264191363E+02 -0.214365664819E+02
 -0.214278815522E+02 -0.213958783214E+02 -0.213354033482E+02 -0.212407618016E+02 -0.211081117221E+02
 -0.209832483199E+02 -0.208755293652E+02 -0.207819632258E+02 -0.205772848980E+02 -0.203511131496E+02
 -0.201147802491E+02 -0.198909283889E+02 -0.196640277488E+02 -0.194306621082E+02 -0.191913605695E+02
 -0.189466002607E+02 -0.186967967799E+02 -0.184423105457E+02 -0.181834471459E+02 -0.179204656918E+02
 -0.176535894761E+02 -0.173830198184E+02 -0.171089518616E+02 -0.168315910057E+02 -0.165511681460E+02
 -0.162679522819E+02 -0.159822591747E+02 -0.156944553519E+02 -0.154049572692E+02 -0.151142260442E+02
 -0.148227586189E+02 -0.145310765414E+02 -0.142397136467E+02 -0.139492038166E+02 -0.136600701056E+02
 -0.133728157654E+02 -0.130879175633E+02 -0.128058232873E+02 -0.125269472336E+02 -0.122516746536E+02
 -0.119803614720E+02 -0.117133372151E+02 -0.114509070166E+02 -0.111933524041E+02 -0.109409302401E+02
 -0.106938695095E+02 -0.104523660310E+02 -0.102165756229E+02 -0.998660662266E+01 -0.976251294212E+01
 -0.954428889577E+01 -0.933186687078E+01 -0.912511853294E+01 -0.892385974529E+01 -0.872785884065E+01
 -0.853684744191E+01 -0.835053274639E+01 -0.816861011910E+01 -0.799077495062E+01 -0.781673297675E+01
 core charge-density (pseudized)
  0.142929568893E-07  0.150759419327E-07  0.159018198204E-07  0.167729402729E-07  0.176917817314E-07
  0.186609584088E-07  0.196832277277E-07  0.207614981655E-07  0.218988375297E-07  0.230984816856E-07
  0.243638437630E-07  0.256985238672E-07  0.271063193214E-07  0.285912354705E-07  0.301574970771E-07
  0.318095603411E-07  0.335521255784E-07  0.353901505937E-07  0.373288647859E-07  0.393737840268E-07
  0.415307263538E-07  0.438058285236E-07  0.462055634712E-07  0.487367587270E-07  0.514066158413E-07
  0.542227308737E-07  0.571931160050E-07  0.603262223325E-07  0.636309639146E-07  0.671167431324E-07
  0.707934774401E-07  0.746716275819E-07  0.787622273536E-07  0.830769149954E-07  0.876279663038E-07
  0.924283295578E-07  0.974916623580E-07  0.102832370485E-06  0.108465648883E-06  0.114407524895E-06
  0.120674903861E-06  0.127285617211E-06  0.134258473206E-06  0.141613310444E-06  0.149371054303E-06
  0.157553776479E-06  0.166184757779E-06  0.175288554363E-06  0.184891067602E-06  0.195019617776E-06
  0.205703021801E-06  0.216971675217E-06  0.228857638665E-06  0.241394729106E-06  0.254618616034E-06
  0.268566922955E-06  0.283279334437E-06  0.298797709011E-06  0.315166198267E-06  0.332431372471E-06
  0.350642353056E-06  0.369850952387E-06  0.390111821166E-06  0.411482603921E-06  0.434024103014E-06
  0.457800451627E-06  0.482879296228E-06  0.509331989033E-06  0.537233791012E-06  0.566664086014E-06
  0.597706606620E-06  0.630449672373E-06  0.664986441057E-06  0.701415173740E-06  0.739839514335E-06
  0.780368784480E-06  0.823118294568E-06  0.868209671814E-06  0.915771206302E-06  0.965938215978E-06
  0.101885343164E-05  0.107466740304E-05  0.113353892719E-05  0.119563550014E-05  0.126113379356E-05
  0.133022015739E-05  0.140309114995E-05  0.147995409725E-05  0.156102768281E-05  0.164654256982E-05
  0.173674205744E-05  0.183188277295E-05  0.193223540192E-05  0.203808545831E-05  0.214973409678E-05
  0.226749896948E-05  0.239171512983E-05  0.252273598574E-05  0.266093430507E-05  0.280670327619E-05
  0.296045762664E-05  0.312263480300E-05  0.329369621550E-05  0.347412855071E-05  0.366444515621E-05
  0.386518750108E-05  0.407692671635E-05  0.430026521995E-05  0.453583843057E-05  0.478431657539E-05
  0.504640659697E-05  0.532285416444E-05  0.561444579492E-05  0.592201109121E-05  0.624642510192E-05
  0.658861081101E-05  0.694954176365E-05  0.733024483587E-05  0.773180315602E-05  0.815535918618E-05
  0.860211797236E-05  0.907335057282E-05  0.957039767405E-05  0.100946734049E-04  0.106476693597E-04
  0.112309588414E-04  0.118462013378E-04  0.124951472421E-04  0.131796428328E-04  0.139016355259E-04
  0.146631794147E-04  0.154664411136E-04  0.163137059213E-04  0.172073843222E-04  0.181500188431E-04
  0.191442912864E-04  0.201930303584E-04  0.212992197166E-04  0.224660064566E-04  0.236967100646E-04
  0.249948318598E-04  0.263640649538E-04  0.278083047562E-04  0.293316600545E-04  0.309384647015E-04
  0.326332899425E-04  0.344209574176E-04  0.363065528759E-04  0.382954406406E-04  0.403932788667E-04
  0.426060356337E-04  0.449400059195E-04  0.474018295036E-04  0.499985098512E-04  0.527374340305E-04
  0.556263937204E-04  0.586736073693E-04  0.618877435659E-04  0.652779456899E-04  0.688538579125E-04
  0.726256526193E-04  0.766040593348E-04  0.808003952305E-04  0.852265973018E-04  0.898952563067E-04
  0.948196525619E-04  0.100013793697E-03  0.105492454476E-03  0.111271218797E-03  0.117366523988E-03
  0.123795707531E-03  0.130577056339E-03  0.137729858724E-03  0.145274459221E-03  0.153232316394E-03
  0.161626063818E-03  0.170479574384E-03  0.179818028127E-03  0.189667983765E-03  0.200057454137E-03
  0.211015985778E-03  0.222574742837E-03  0.234766595579E-03  0.247626213724E-03  0.261190164893E-03
  0.275497018417E-03  0.290587454832E-03  0.306504381336E-03  0.323293053567E-03  0.341001204016E-03
  0.359679177453E-03  0.379380073744E-03  0.400159898454E-03  0.422077721673E-03  0.445195845493E-03
  0.469579980620E-03  0.495299432611E-03  0.522427298256E-03  0.551040672660E-03  0.581220867598E-03
  0.613053641754E-03  0.646629443492E-03  0.682043666831E-03  0.719396921336E-03  0.758795316677E-03
  0.800350762650E-03  0.844181285488E-03  0.890411361335E-03  0.939172267817E-03  0.990602454665E-03
  0.104484793443E-02  0.110206269435E-02  0.116240913050E-02  0.122605850542E-02  0.129319143053E-02
  0.136399837448E-02  0.143868019904E-02  0.151744872380E-02  0.160052732138E-02  0.168815154456E-02
  0.178056978720E-02  0.187804398063E-02  0.198085032737E-02  0.208928007424E-02  0.220364032672E-02
  0.232425490693E-02  0.245146525736E-02  0.258563139277E-02  0.272713290268E-02  0.287637000718E-02
  0.303376466869E-02  0.319976176252E-02  0.337483030933E-02  0.355946477247E-02  0.375418642360E-02
  0.395954477994E-02  0.417611911671E-02  0.440452005858E-02  0.464539125386E-02  0.489941113567E-02
  0.516729477412E-02  0.544979582401E-02  0.574770857258E-02  0.606187009210E-02  0.639316250200E-02
  0.674251534601E-02  0.711090808912E-02  0.749937274028E-02  0.790899660600E-02  0.834092518099E-02
  0.879636518154E-02  0.927658772794E-02  0.978293168198E-02  0.103168071460E-01  0.108796991301E-01
  0.114731713935E-01  0.120988704680E-01  0.127585298684E-01  0.134539744979E-01  0.141871252552E-01
  0.149600038487E-01  0.157747378259E-01  0.166335658222E-01  0.175388430376E-01  0.184930469452E-01
  0.194987832368E-01  0.205587920114E-01  0.216759542104E-01  0.228532983015E-01  0.240940072158E-01
  0.254014255381E-01  0.267790669505E-01  0.282306219287E-01  0.297599656864E-01  0.313711663651E-01
  0.330684934587E-01  0.348564264658E-01  0.367396637551E-01  0.387231316280E-01  0.408119935578E-01
  0.430116595820E-01  0.453277958167E-01  0.477663340598E-01  0.503334814395E-01  0.530357300631E-01
  0.558798666071E-01  0.588729817854E-01  0.620224796210E-01  0.653360864362E-01  0.688218594633E-01
  0.724881949657E-01  0.763438357439E-01  0.803978778848E-01  0.846597765945E-01  0.891393509345E-01
  0.938467872609E-01  0.987926411402E-01  0.103987837491E+00  0.109443668671E+00  0.115171790197E+00
  0.121184213757E+00  0.127493297126E+00  0.134111730568E+00  0.141052519259E+00  0.148328961222E+00
  0.155954620215E+00  0.163943292953E+00  0.172308970007E+00  0.181065789653E+00  0.190227983876E+00
  0.199809815687E+00  0.209825506837E+00  0.220289154938E+00  0.231214638948E+00  0.242615511900E+00
  0.254504879688E+00  0.266895264670E+00  0.279798452784E+00  0.293225322823E+00  0.307185656487E+00
  0.321687927787E+00  0.336739070391E+00  0.352344221502E+00  0.368506440910E+00  0.385226403943E+00
  0.402502067147E+00  0.420328305734E+00  0.438696522029E+00  0.457594224477E+00  0.477004577170E+00
  0.496905920314E+00  0.517271262685E+00  0.538067747834E+00  0.559256096703E+00  0.580790030327E+00
  0.602615677561E+00  0.624670974185E+00  0.646885061405E+00  0.669177693677E+00  0.691458667938E+00
  0.713627288756E+00  0.735571886632E+00  0.757169409643E+00  0.778285111889E+00  0.798772365655E+00
  0.818472627867E+00  0.837215595208E+00  0.854819586023E+00  0.871092190842E+00  0.885831236681E+00
  0.898826113137E+00  0.909859510251E+00  0.918709618942E+00  0.925152843938E+00  0.928967076101E+00
  0.929935565190E+00  0.927851424735E+00  0.922522786891E+00  0.913778606122E+00  0.901475085183E+00
  0.885502664198E+00  0.865793472587E+00  0.842329093188E+00  0.815148427447E+00  0.784355379340E+00
  0.750125993957E+00  0.712714594787E+00  0.672458363585E+00  0.629779700908E+00  0.585185598696E+00
  0.539263155069E+00  0.492670275105E+00  0.446120541660E+00  0.400361222961E+00  0.356143427796E+00
  0.314183547851E+00  0.275115366591E+00  0.239432594950E+00  0.207422147066E+00  0.179085207701E+00
  0.154127933633E+00  0.132206129498E+00  0.113005656979E+00  0.962401656725E-01  0.816486652561E-01
  0.689933599754E-01  0.580577282451E-01  0.486448227512E-01  0.405757628257E-01  0.336883895444E-01
  0.278360549307E-01  0.228865196458E-01  0.187209350925E-01  0.152328921044E-01  0.123275204553E-01
  0.992062806505E-02  0.793787218321E-02  0.631395794849E-02  0.499186232903E-02  0.392208351894E-02
  0.306191740140E-02  0.237476370847E-02  0.182946505689E-02  0.139968217011E-02  0.106330837642E-02
  0.801925974916E-03  0.600306364120E-03  0.445955009941E-03  0.328701465588E-03  0.240333809289E-03
  0.174276090381E-03  0.125306707083E-03  0.893151049934E-04  0.630937919096E-04  0.441624229192E-04
  0.306205784370E-04  0.210258683646E-04  0.142940852133E-04  0.961830129505E-05  0.640403163837E-05
  0.421784723850E-05  0.274710574988E-05  0.176875460857E-05  0.112544343440E-05  0.707449756680E-06
  0.439168512883E-06  0.269137531307E-06  0.162766399690E-06  0.971043972268E-07  0.571254073775E-07
  0.331257047611E-07  0.189265753634E-07  0.106505568474E-07  0.590044507304E-08  0.321680468881E-08
 pseudo wavefunction
  0.985293478332E-04  0.101192143245E-03  0.103926901777E-03  0.106735568262E-03  0.109620140092E-03
  0.112582668640E-03  0.115625260718E-03  0.118750080074E-03  0.121959348934E-03  0.125255349579E-03
  0.128640425972E-03  0.132116985420E-03  0.135687500290E-03  0.139354509764E-03  0.143120621648E-03
  0.146988514224E-03  0.150960938157E-03  0.155040718449E-03  0.159230756448E-03  0.163534031913E-03
  0.167953605132E-03  0.172492619099E-03  0.177154301747E-03  0.181941968248E-03  0.186859023365E-03
  0.191908963877E-03  0.197095381066E-03  0.202421963268E-03  0.207892498499E-03  0.213510877147E-03
  0.219281094740E-03  0.225207254785E-03  0.231293571691E-03  0.237544373759E-03  0.243964106268E-03
  0.250557334629E-03  0.257328747637E-03  0.264283160803E-03  0.271425519780E-03  0.278760903877E-03
  0.286294529675E-03  0.294031754735E-03  0.301978081408E-03  0.310139160746E-03  0.318520796527E-03
  0.327128949375E-03  0.335969741003E-03  0.345049458566E-03  0.354374559131E-03  0.363951674270E-03
  0.373787614777E-03  0.383889375508E-03  0.394264140358E-03  0.404919287371E-03  0.415862393984E-03
  0.427101242416E-03  0.438643825206E-03  0.450498350892E-03  0.462673249851E-03  0.475177180295E-03
  0.488019034425E-03  0.501207944759E-03  0.514753290623E-03  0.528664704824E-03  0.542952080497E-03
  0.557625578142E-03  0.572695632853E-03  0.588172961732E-03  0.604068571517E-03  0.620393766404E-03
  0.637160156089E-03  0.654379664026E-03  0.672064535900E-03  0.690227348343E-03  0.708881017871E-03
  0.728038810073E-03  0.747714349046E-03  0.767921627080E-03  0.788675014610E-03  0.809989270438E-03
  0.831879552222E-03  0.854361427263E-03  0.877450883570E-03  0.901164341231E-03  0.925518664092E-03
  0.950531171744E-03  0.976219651847E-03  0.100260237277E-02  0.102969809660E-02  0.105752609246E-02
  0.108610615021E-02  0.111545859457E-02  0.114560429951E-02  0.117656470313E-02  0.120836182289E-02
  0.124101827127E-02  0.127455727186E-02  0.130900267587E-02  0.134437897909E-02  0.138071133929E-02
  0.141802559414E-02  0.145634827957E-02  0.149570664864E-02  0.153612869091E-02  0.157764315237E-02
  0.162027955585E-02  0.166406822203E-02  0.170904029099E-02  0.175522774438E-02  0.180266342813E-02
  0.185138107581E-02  0.190141533264E-02  0.195280178009E-02  0.200557696122E-02  0.205977840662E-02
  0.211544466115E-02  0.217261531130E-02  0.223133101334E-02  0.229163352225E-02  0.235356572142E-02
  0.241717165310E-02  0.248249654972E-02  0.254958686611E-02  0.261849031244E-02  0.268925588820E-02
  0.276193391703E-02  0.283657608247E-02  0.291323546473E-02  0.299196657844E-02  0.307282541136E-02
  0.315586946422E-02  0.324115779158E-02  0.332875104382E-02  0.341871151025E-02  0.351110316339E-02
  0.360599170443E-02  0.370344460996E-02  0.380353117993E-02  0.390632258686E-02  0.401189192648E-02
  0.412031426968E-02  0.423166671581E-02  0.434602844753E-02  0.446348078708E-02  0.458410725404E-02
  0.470799362468E-02  0.483522799296E-02  0.496590083306E-02  0.510010506372E-02  0.523793611423E-02
  0.537949199220E-02  0.552487335326E-02  0.567418357250E-02  0.582752881791E-02  0.598501812582E-02
  0.614676347830E-02  0.631287988272E-02  0.648348545340E-02  0.665870149549E-02  0.683865259111E-02
  0.702346668777E-02  0.721327518921E-02  0.740821304868E-02  0.760841886472E-02  0.781403497952E-02
  0.802520757991E-02  0.824208680109E-02  0.846482683315E-02  0.869358603041E-02  0.892852702377E-02
  0.916981683597E-02  0.941762700008E-02  0.967213368104E-02  0.993351780055E-02  0.102019651652E-01
  0.104776665984E-01  0.107608180749E-01  0.110516208604E-01  0.113502816535E-01  0.116570127322E-01
  0.119720321038E-01  0.122955636599E-01  0.126278373338E-01  0.129690892639E-01  0.133195619600E-01
  0.136795044751E-01  0.140491725810E-01  0.144288289491E-01  0.148187433356E-01  0.152191927721E-01
  0.156304617606E-01  0.160528424746E-01  0.164866349641E-01  0.169321473678E-01  0.173896961294E-01
  0.178596062201E-01  0.183422113677E-01  0.188378542902E-01  0.193468869370E-01  0.198696707356E-01
  0.204065768451E-01  0.209579864158E-01  0.215242908564E-01  0.221058921076E-01  0.227032029225E-01
  0.233166471552E-01  0.239466600560E-01  0.245936885746E-01  0.252581916710E-01  0.259406406342E-01
  0.266415194094E-01  0.273613249335E-01  0.281005674783E-01  0.288597710037E-01  0.296394735187E-01
  0.304402274519E-01  0.312626000313E-01  0.321071736733E-01  0.329745463814E-01  0.338653321549E-01
  0.347801614072E-01  0.357196813947E-01  0.366845566555E-01  0.376754694593E-01  0.386931202672E-01
  0.397382282034E-01  0.408115315365E-01  0.419137881735E-01  0.430457761641E-01  0.442082942168E-01
  0.454021622266E-01  0.466282218143E-01  0.478873368780E-01  0.491803941558E-01  0.505083038011E-01
  0.518719999700E-01  0.532724414202E-01  0.547106121222E-01  0.561875218831E-01  0.577042069817E-01
  0.592617308160E-01  0.608611845622E-01  0.625036878460E-01  0.641903894247E-01  0.659224678810E-01
  0.677011323278E-01  0.695276231234E-01  0.714032125970E-01  0.733292057843E-01  0.753069411718E-01
  0.773377914500E-01  0.794231642746E-01  0.815645030338E-01  0.837632876236E-01  0.860210352258E-01
  0.883393010923E-01  0.907196793299E-01  0.931638036878E-01  0.956733483438E-01  0.982500286887E-01
  0.100895602106E+00  0.103611868746E+00  0.106400672289E+00  0.109263900701E+00  0.112203486970E+00
  0.115221409827E+00  0.118319694449E+00  0.121500413128E+00  0.124765685922E+00  0.128117681263E+00
  0.131558616526E+00  0.135090758565E+00  0.138716424181E+00  0.142437980545E+00  0.146257845551E+00
  0.150178488101E+00  0.154202428303E+00  0.158332237584E+00  0.162570538699E+00  0.166920005635E+00
  0.171383363379E+00  0.175963387568E+00  0.180662903975E+00  0.185484787834E+00  0.190431962990E+00
  0.195507400839E+00  0.200714119061E+00  0.206055180109E+00  0.211533689439E+00  0.217152793453E+00
  0.222915677139E+00  0.228825561365E+00  0.234885699811E+00  0.241099375500E+00  0.247469896893E+00
  0.254000593518E+00  0.260694811082E+00  0.267555906039E+00  0.274587239552E+00  0.281792170811E+00
  0.289174049658E+00  0.296736208452E+00  0.304481953125E+00  0.312414553369E+00  0.320537231874E+00
  0.328853152560E+00  0.337365407732E+00  0.346077004058E+00  0.354990847315E+00  0.364109725798E+00
  0.373436292307E+00  0.382973044616E+00  0.392722304332E+00  0.402686194027E+00  0.412866612552E+00
  0.423265208410E+00  0.433883351095E+00  0.444722100258E+00  0.455782172605E+00  0.467063906407E+00
  0.478567223497E+00  0.490291588660E+00  0.502235966289E+00  0.514398774214E+00  0.526777834613E+00
  0.539370321910E+00  0.552172707596E+00  0.565180701922E+00  0.578389192422E+00  0.591792179270E+00
  0.605382707494E+00  0.619152796088E+00  0.633093364164E+00  0.647194154252E+00  0.661443652998E+00
  0.675829009513E+00  0.690335951746E+00  0.704948701311E+00  0.719649887313E+00  0.734420459836E+00
  0.749239603850E+00  0.764084654469E+00  0.778931014614E+00  0.793752076318E+00  0.808519147082E+00
  0.823201382886E+00  0.837765729673E+00  0.852176875323E+00  0.866397214385E+00  0.880386828046E+00
  0.894103482050E+00  0.907502645520E+00  0.920537533833E+00  0.933159178884E+00  0.945316530244E+00
  0.956956590803E+00  0.968024590527E+00  0.978464201904E+00  0.988217800476E+00  0.997226773549E+00
  0.100543187967E+01  0.101277366074E+01  0.101919290776E+01  0.102463117975E+01  0.102903137399E+01
  0.103233834369E+01  0.103449955648E+01  0.103546578458E+01  0.103519181370E+01  0.103363715384E+01
  0.103076673045E+01  0.102655152929E+01  0.102096916257E+01  0.101400431788E+01  0.100564904476E+01
  0.995902827684E+00  0.984772387449E+00  0.972271147838E+00  0.958418299689E+00  0.943237392186E+00
  0.926754381389E+00  0.908995070053E+00  0.889981881854E+00  0.869729928537E+00  0.848242351832E+00
  0.825502996556E+00  0.801510792107E+00  0.776371380395E+00  0.750225475751E+00  0.723216225498E+00
  0.695488171095E+00  0.667186193097E+00  0.638454436941E+00  0.609435239193E+00  0.580268063376E+00
  0.551088460405E+00  0.522027069328E+00  0.493208674992E+00  0.464751339438E+00  0.436765622908E+00
  0.409353908573E+00  0.382609842183E+00  0.356617894364E+00  0.331453049279E+00  0.307180619431E+00
  0.283856182726E+00  0.261525634854E+00  0.240225347784E+00  0.219982423720E+00  0.200815033136E+00
  0.182732825562E+00  0.165737402153E+00  0.149822839780E+00  0.134976255401E+00  0.121178406243E+00
  0.108404312536E+00  0.966238975839E-01  0.858026369211E-01  0.759022090081E-01  0.668811400707E-01
  0.586954358493E-01  0.512991933778E-01  0.446451864560E-01  0.386854192329E-01  0.333716432490E-01
  0.286558343112E-01  0.244906265993E-01  0.208297023396E-01  0.176281361486E-01  0.148426937352E-01
  0.124320850657E-01  0.103571723998E-01  0.858113387195E-02  0.706958359180E-02  0.579064961114E-02
 ae wavefunction
 -0.157987990278E-02 -0.162132811087E-02 -0.166386009949E-02 -0.170750401507E-02 -0.175228872483E-02
 -0.179824383469E-02 -0.184539970764E-02 -0.189378748247E-02 -0.194343909300E-02 -0.199438728769E-02
 -0.204666564972E-02 -0.210030861758E-02 -0.215535150599E-02 -0.221183052742E-02 -0.226978281402E-02
 -0.232924644010E-02 -0.239026044495E-02 -0.245286485639E-02 -0.251710071463E-02 -0.258301009674E-02
 -0.265063614163E-02 -0.272002307556E-02 -0.279121623816E-02 -0.286426210905E-02 -0.293920833497E-02
 -0.301610375745E-02 -0.309499844112E-02 -0.317594370250E-02 -0.325899213944E-02 -0.334419766112E-02
 -0.343161551861E-02 -0.352130233604E-02 -0.361331614243E-02 -0.370771640399E-02 -0.380456405714E-02
 -0.390392154217E-02 -0.400585283729E-02 -0.411042349361E-02 -0.421770067046E-02 -0.432775317152E-02
 -0.444065148141E-02 -0.455646780304E-02 -0.467527609546E-02 -0.479715211238E-02 -0.492217344126E-02
 -0.505041954306E-02 -0.518197179245E-02 -0.531691351881E-02 -0.545533004758E-02 -0.559730874235E-02
 -0.574293904743E-02 -0.589231253092E-02 -0.604552292838E-02 -0.620266618695E-02 -0.636384050995E-02
 -0.652914640199E-02 -0.669868671445E-02 -0.687256669137E-02 -0.705089401580E-02 -0.723377885635E-02
 -0.742133391420E-02 -0.761367447024E-02 -0.781091843252E-02 -0.801318638383E-02 -0.822060162943E-02
 -0.843329024482E-02 -0.865138112356E-02 -0.887500602501E-02 -0.910429962191E-02 -0.933939954788E-02
 -0.958044644450E-02 -0.982758400810E-02 -0.100809590361E-01 -0.103407214730E-01 -0.106070244549E-01
 -0.108800243547E-01 -0.111598808248E-01 -0.114467568402E-01 -0.117408187394E-01 -0.120422362645E-01
 -0.123511825999E-01 -0.126678344091E-01 -0.129923718701E-01 -0.133249787084E-01 -0.136658422283E-01
 -0.140151533412E-01 -0.143731065924E-01 -0.147399001833E-01 -0.151157359928E-01 -0.155008195932E-01
 -0.158953602643E-01 -0.162995710018E-01 -0.167136685235E-01 -0.171378732691E-01 -0.175724093966E-01
 -0.180175047720E-01 -0.184733909551E-01 -0.189403031775E-01 -0.194184803157E-01 -0.199081648559E-01
 -0.204096028527E-01 -0.209230438786E-01 -0.214487409667E-01 -0.219869505427E-01 -0.225379323486E-01
 -0.231019493559E-01 -0.236792676680E-01 -0.242701564109E-01 -0.248748876123E-01 -0.254937360671E-01
 -0.261269791901E-01 -0.267748968534E-01 -0.274377712090E-01 -0.281158864952E-01 -0.288095288253E-01
 -0.295189859589E-01 -0.302445470539E-01 -0.309865023979E-01 -0.317451431191E-01 -0.325207608740E-01
 -0.333136475123E-01 -0.341240947158E-01 -0.349523936128E-01 -0.357988343632E-01 -0.366637057161E-01
 -0.375472945363E-01 -0.384498852991E-01 -0.393717595520E-01 -0.403131953408E-01 -0.412744665992E-01
 -0.422558425004E-01 -0.432575867677E-01 -0.442799569433E-01 -0.453232036136E-01 -0.463875695875E-01
 -0.474732890278E-01 -0.485805865319E-01 -0.497096761606E-01 -0.508607604122E-01 -0.520340291406E-01
 -0.532296584141E-01 -0.544478093135E-01 -0.556886266660E-01 -0.569522377138E-01 -0.582387507147E-01
 -0.595482534707E-01 -0.608808117851E-01 -0.622364678423E-01 -0.636152385110E-01 -0.650171135653E-01
 -0.664420538241E-01 -0.678899892044E-01 -0.693608166867E-01 -0.708543981907E-01 -0.723705583581E-01
 -0.739090822414E-01 -0.754697128957E-01 -0.770521488722E-01 -0.786560416116E-01 -0.802809927347E-01
 -0.819265512310E-01 -0.835922105419E-01 -0.852774055385E-01 -0.869815093941E-01 -0.887038303491E-01
 -0.904436083707E-01 -0.922000117060E-01 -0.939721333304E-01 -0.957589872920E-01 -0.975595049551E-01
 -0.993725311429E-01 -0.101196820186E+00 -0.103031031878E+00 -0.104873727341E+00 -0.106723364816E+00
 -0.108578295367E+00 -0.110436758528E+00 -0.112296877879E+00 -0.114156656584E+00 -0.116013972875E+00
 -0.117866575520E+00 -0.119712079274E+00 -0.121547960324E+00 -0.123371551761E+00 -0.125180039084E+00
 -0.126970455754E+00 -0.128739678836E+00 -0.130484424734E+00 -0.132201245059E+00 -0.133886522648E+00
 -0.135536467776E+00 -0.137147114580E+00 -0.138714317746E+00 -0.140233749488E+00 -0.141700896854E+00
 -0.143111059423E+00 -0.144459347420E+00 -0.145740680308E+00 -0.146949785911E+00 -0.148081200121E+00
 -0.149129267249E+00 -0.150088141083E+00 -0.150951786723E+00 -0.151713983255E+00 -0.152368327344E+00
 -0.152908237814E+00 -0.153326961302E+00 -0.153617579067E+00 -0.153773015026E+00 -0.153786045123E+00
 -0.153649308114E+00 -0.153355317846E+00 -0.152896477154E+00 -0.152265093432E+00 -0.151453396014E+00
 -0.150453555429E+00 -0.149257704642E+00 -0.147857962375E+00 -0.146246458595E+00 -0.144415362264E+00
 -0.142356911439E+00 -0.140063445793E+00 -0.137527441649E+00 -0.134741549584E+00 -0.131698634669E+00
 -0.128391819391E+00 -0.124814529297E+00 -0.120960541387E+00 -0.116824035266E+00 -0.112399647044E+00
 -0.107682525959E+00 -0.102668393687E+00 -0.973536062455E-01 -0.917352184171E-01 -0.858110505559E-01
 -0.795797576234E-01 -0.730409002666E-01 -0.661950177094E-01 -0.590437021940E-01 -0.515896746613E-01
 -0.438368613178E-01 -0.357904706874E-01 -0.274570706959E-01 -0.188446652911E-01 -0.996277005155E-02
 -0.822486199911E-03  0.856342760000E-02  0.181804863026E-01  0.280124130511E-01  0.380410779195E-01
  0.482464414870E-01  0.586065039272E-01  0.690972603260E-01  0.796926630199E-01  0.903645918591E-01
  0.101082833446E+00  0.111815070569E+00  0.122526883218E+00  0.133181762692E+00  0.143741140405E+00
  0.154164432976E+00  0.164409105162E+00  0.174430751950E+00  0.184183200997E+00  0.193618636263E+00
  0.202687743525E+00  0.211339878260E+00  0.219523256290E+00  0.227185167508E+00  0.234272212928E+00
  0.240730565194E+00  0.246506252499E+00  0.251545465698E+00  0.255794888115E+00  0.259202047339E+00
  0.261715688030E+00  0.263286164473E+00  0.263865851381E+00  0.263409571127E+00  0.261875035298E+00
  0.259223298141E+00  0.255419219132E+00  0.250431931557E+00  0.244235313613E+00  0.236808458186E+00
  0.228136137094E+00  0.218209255179E+00  0.207025289350E+00  0.194588707283E+00  0.180911360244E+00
  0.166012844248E+00  0.149920823614E+00  0.132671310864E+00  0.114308896964E+00  0.948869259255E-01
  0.744676080174E-01  0.531220659718E-01  0.309303088472E-01  0.798112839152E-02 -0.156280869671E-01
 -0.397916249340E-01 -0.643958124256E-01 -0.893194703714E-01 -0.114434458067E+00 -0.139606299348E+00
 -0.164694875980E+00 -0.189555167807E+00 -0.214038018207E+00 -0.237990911643E+00 -0.261258769882E+00
 -0.283684800547E+00 -0.305111454106E+00 -0.325381542943E+00 -0.344339536419E+00 -0.361832984273E+00
 -0.377713978645E+00 -0.391840571290E+00 -0.404078102852E+00 -0.414300439731E+00 -0.422391130289E+00
 -0.428244489451E+00 -0.431766610425E+00 -0.432876292557E+00 -0.431505869001E+00 -0.427601916234E+00
 -0.421125829892E+00 -0.412054255279E+00 -0.400379366205E+00 -0.386108990469E+00 -0.369266584547E+00
 -0.349891063388E+00 -0.328036493436E+00 -0.303771659140E+00 -0.277179513886E+00 -0.248356527556E+00
 -0.217411942696E+00 -0.184466951701E+00 -0.149653806828E+00 -0.113114874381E+00 -0.750016438057E-01
 -0.354737013271E-01  0.530232276138E-02  0.471538252503E-01  0.899033121124E-01  0.133369484905E+00
  0.177368325117E+00  0.221714170405E+00  0.266220776692E+00  0.310702360301E+00  0.354974613884E+00
  0.398855691005E+00  0.442167152671E+00  0.484734871986E+00  0.526389892400E+00  0.566969236367E+00
  0.606316663032E+00  0.644283373561E+00  0.680728663734E+00  0.715520522303E+00  0.748536172214E+00
  0.779662548615E+00  0.808796704601E+00  0.835846132380E+00  0.860728986962E+00  0.883374202421E+00
  0.903721497725E+00  0.921721282513E+00  0.937334485995E+00  0.950532346410E+00  0.961296203439E+00
  0.969617334179E+00  0.975496857465E+00  0.978945715249E+00  0.979984715190E+00  0.978644606754E+00
  0.974966153600E+00  0.969000159393E+00  0.960807424574E+00  0.950458661036E+00  0.938034181154E+00
  0.923623613797E+00  0.907325433651E+00  0.889246424906E+00  0.869501045436E+00  0.848210709992E+00
  0.825502996556E+00  0.801510792107E+00  0.776371380395E+00  0.750225475751E+00  0.723216225498E+00
  0.695488171095E+00  0.667186193097E+00  0.638454436941E+00  0.609435239193E+00  0.580268063376E+00
  0.551088460405E+00  0.522027069328E+00  0.493208674992E+00  0.464751339438E+00  0.436765622908E+00
  0.409353908573E+00  0.382609842183E+00  0.356617894364E+00  0.331453049279E+00  0.307180619431E+00
  0.283856182726E+00  0.261525634854E+00  0.240225347784E+00  0.219982423720E+00  0.200815033136E+00
  0.182732825562E+00  0.165737402153E+00  0.149822839780E+00  0.134976255401E+00  0.121178406243E+00
  0.108404312536E+00  0.966238975839E-01  0.858026369211E-01  0.759022090081E-01  0.668811400707E-01
  0.586954358493E-01  0.512991933778E-01  0.446451864560E-01  0.386854192329E-01  0.333716432490E-01
  0.286558343112E-01  0.244906265993E-01  0.208297023396E-01  0.176281361486E-01  0.148426937352E-01
  0.124320850657E-01  0.103571723998E-01  0.858113387195E-02  0.706958359180E-02  0.579064961114E-02
 pseudo wavefunction
  0.127750772012E-03  0.131203288211E-03  0.134749110053E-03  0.138390759162E-03  0.142130825307E-03
  0.145971968249E-03  0.149916919629E-03  0.153968484912E-03  0.158129545381E-03  0.162403060188E-03
  0.166792068457E-03  0.171299691445E-03  0.175929134762E-03  0.180683690651E-03  0.185566740331E-03
  0.190581756398E-03  0.195732305297E-03  0.201022049855E-03  0.206454751893E-03  0.212034274894E-03
  0.217764586753E-03  0.223649762599E-03  0.229693987693E-03  0.235901560406E-03  0.242276895273E-03
  0.248824526132E-03  0.255549109353E-03  0.262455427142E-03  0.269548390951E-03  0.276833044962E-03
  0.284314569679E-03  0.291998285612E-03  0.299889657060E-03  0.307994295995E-03  0.316317966056E-03
  0.324866586647E-03  0.333646237146E-03  0.342663161227E-03  0.351923771303E-03  0.361434653086E-03
  0.371202570268E-03  0.381234469331E-03  0.391537484491E-03  0.402118942768E-03  0.412986369196E-03
  0.424147492179E-03  0.435610248981E-03  0.447382791374E-03  0.459473491437E-03  0.471890947505E-03
  0.484643990287E-03  0.497741689145E-03  0.511193358544E-03  0.525008564676E-03  0.539197132263E-03
  0.553769151543E-03  0.568734985446E-03  0.584105276965E-03  0.599890956723E-03  0.616103250745E-03
  0.632753688447E-03  0.649854110829E-03  0.667416678898E-03  0.685453882316E-03  0.703978548284E-03
  0.723003850660E-03  0.742543319332E-03  0.762610849836E-03  0.783220713240E-03  0.804387566290E-03
  0.826126461838E-03  0.848452859542E-03  0.871382636861E-03  0.894932100349E-03  0.919117997248E-03
  0.943957527398E-03  0.969468355470E-03  0.995668623528E-03  0.102257696393E-02  0.105021251257E-02
  0.107859492251E-02  0.110774437792E-02  0.113768160848E-02  0.116842790405E-02  0.120000512990E-02
  0.123243574219E-02  0.126574280395E-02  0.129995000152E-02  0.133508166133E-02  0.137116276728E-02
  0.140821897842E-02  0.144627664727E-02  0.148536283850E-02  0.152550534822E-02  0.156673272375E-02
  0.160907428386E-02  0.165256013969E-02  0.169722121613E-02  0.174308927379E-02  0.179019693164E-02
  0.183857769015E-02  0.188826595516E-02  0.193929706229E-02  0.199170730212E-02  0.204553394597E-02
  0.210081527242E-02  0.215759059449E-02  0.221590028764E-02  0.227578581846E-02  0.233728977415E-02
  0.240045589282E-02  0.246532909457E-02  0.253195551345E-02  0.260038253024E-02  0.267065880617E-02
  0.274283431749E-02  0.281696039103E-02  0.289308974068E-02  0.297127650487E-02  0.305157628506E-02
  0.313404618530E-02  0.321874485280E-02  0.330573251963E-02  0.339507104556E-02  0.348682396203E-02
  0.358105651732E-02  0.367783572294E-02  0.377723040127E-02  0.387931123448E-02  0.398415081478E-02
  0.409182369605E-02  0.420240644680E-02  0.431597770464E-02  0.443261823213E-02  0.455241097424E-02
  0.467544111729E-02  0.480179614949E-02  0.493156592314E-02  0.506484271846E-02  0.520172130925E-02
  0.534229903017E-02  0.548667584594E-02  0.563495442241E-02  0.578724019949E-02  0.594364146608E-02
  0.610426943702E-02  0.626923833212E-02  0.643866545732E-02  0.661267128801E-02  0.679137955464E-02
  0.697491733063E-02  0.716341512261E-02  0.735700696316E-02  0.755583050596E-02  0.776002712360E-02
  0.796974200798E-02  0.818512427337E-02  0.840632706235E-02  0.863350765450E-02  0.886682757809E-02
  0.910645272473E-02  0.935255346712E-02  0.960530477998E-02  0.986488636423E-02  0.101314827745E-01
  0.104052835500E-01  0.106864833492E-01  0.109752820876E-01  0.112718850797E-01  0.115765031845E-01
  0.118893529553E-01  0.122106567927E-01  0.125406431025E-01  0.128795464578E-01  0.132276077645E-01
  0.135850744327E-01  0.139522005515E-01  0.143292470690E-01  0.147164819770E-01  0.151141805005E-01
  0.155226252927E-01  0.159421066347E-01  0.163729226410E-01  0.168153794696E-01  0.172697915392E-01
  0.177364817507E-01  0.182157817152E-01  0.187080319883E-01  0.192135823103E-01  0.197327918528E-01
  0.202660294718E-01  0.208136739677E-01  0.213761143518E-01  0.219537501206E-01  0.225469915361E-01
  0.231562599148E-01  0.237819879234E-01  0.244246198823E-01  0.250846120780E-01  0.257624330822E-01
  0.264585640806E-01  0.271734992091E-01  0.279077459000E-01  0.286618252359E-01  0.294362723134E-01
  0.302316366167E-01  0.310484823997E-01  0.318873890786E-01  0.327489516347E-01  0.336337810268E-01
  0.345425046149E-01  0.354757665943E-01  0.364342284400E-01  0.374185693637E-01  0.384294867811E-01
  0.394676967911E-01  0.405339346673E-01  0.416289553610E-01  0.427535340175E-01  0.439084665038E-01
  0.450945699501E-01  0.463126833040E-01  0.475636678979E-01  0.488484080300E-01  0.501678115591E-01
  0.515228105131E-01  0.529143617117E-01  0.543434474034E-01  0.558110759173E-01  0.573182823287E-01
  0.588661291402E-01  0.604557069779E-01  0.620881353016E-01  0.637645631313E-01  0.654861697881E-01
  0.672541656507E-01  0.690697929268E-01  0.709343264405E-01  0.728490744338E-01  0.748153793842E-01
  0.768346188364E-01  0.789082062493E-01  0.810375918576E-01  0.832242635470E-01  0.854697477435E-01
  0.877756103170E-01  0.901434574962E-01  0.925749367969E-01  0.950717379617E-01  0.976355939105E-01
  0.100268281700E+00  0.102971623495E+00  0.105747487542E+00  0.108597789155E+00  0.111524491701E+00
  0.114529607596E+00  0.117615199291E+00  0.120783380270E+00  0.124036316035E+00  0.127376225092E+00
  0.130805379923E+00  0.134326107955E+00  0.137940792505E+00  0.141651873712E+00  0.145461849444E+00
  0.149373276183E+00  0.153388769870E+00  0.157511006716E+00  0.161742723974E+00  0.166086720656E+00
  0.170545858193E+00  0.175123061033E+00  0.179821317164E+00  0.184643678557E+00  0.189593261515E+00
  0.194673246920E+00  0.199886880361E+00  0.205237472141E+00  0.210728397142E+00  0.216363094521E+00
  0.222145067253E+00  0.228077881464E+00  0.234165165565E+00  0.240410609154E+00  0.246817961658E+00
  0.253391030702E+00  0.260133680176E+00  0.267049827963E+00  0.274143443306E+00  0.281418543780E+00
  0.288879191831E+00  0.296529490841E+00  0.304373580684E+00  0.312415632730E+00  0.320659844232E+00
  0.329110432068E+00  0.337771625773E+00  0.346647659791E+00  0.355742764906E+00  0.365061158766E+00
  0.374607035438E+00  0.384384553910E+00  0.394397825466E+00  0.404650899841E+00  0.415147750060E+00
  0.425892255877E+00  0.436888185689E+00  0.448139176834E+00  0.459648714141E+00  0.471420106618E+00
  0.483456462150E+00  0.495760660064E+00  0.508335321427E+00  0.521182776920E+00  0.534305032151E+00
  0.547703730228E+00  0.561380111445E+00  0.575334969906E+00  0.589568606912E+00  0.604080780948E+00
  0.618870654093E+00  0.633936734668E+00  0.649276815970E+00  0.664887910915E+00  0.680766182428E+00
  0.696906869447E+00  0.713304208394E+00  0.729951350008E+00  0.746840271444E+00  0.763961683572E+00
  0.781304933467E+00  0.798857902080E+00  0.816606897181E+00  0.834536541674E+00  0.852629657506E+00
  0.870867145416E+00  0.889227860910E+00  0.907688486925E+00  0.926223403765E+00  0.944804557053E+00
  0.963401324543E+00  0.981980382866E+00  0.100050557541E+01  0.101893778275E+01  0.103723479736E+01
  0.105535120435E+01  0.107323827045E+01  0.109084384370E+01  0.110811226641E+01  0.112498430437E+01
  0.114139709569E+01  0.115728412262E+01  0.117257521030E+01  0.118719655635E+01  0.120107079568E+01
  0.121411710472E+01  0.122625134966E+01  0.123738628301E+01  0.124743179282E+01  0.125629520834E+01
  0.126388166559E+01  0.127009453553E+01  0.127483591635E+01  0.127800719022E+01  0.127950964297E+01
  0.127924514324E+01  0.127711687493E+01  0.127303011369E+01  0.126689303488E+01  0.125861753609E+01
  0.124812005298E+01  0.123532234225E+01  0.122015220024E+01  0.120254408029E+01  0.118243956689E+01
  0.115978765963E+01  0.113454481603E+01  0.110667470026E+01  0.107614758367E+01  0.104293934676E+01
  0.100703003801E+01  0.968401957677E+00  0.927037252802E+00  0.882915036044E+00  0.836008076730E+00
  0.786279158693E+00  0.733707633361E+00  0.678383369809E+00  0.620424321822E+00  0.559945486128E+00
  0.000000000000E+00  0.000000000000E+00  0.000000000000E+00  0.000000000000E+00  0.000000000000E+00
  0.000000000000E+00  0.000000000000E+00  0.000000000000E+00  0.000000000000E+00  0.000000000000E+00
  0.000000000000E+00  0.000000000000E+00  0.000000000000E+00  0.000000000000E+00  0.000000000000E+00
  0.000000000000E+00  0.000000000000E+00  0.000000000000E+00  0.000000000000E+00  0.000000000000E+00
  0.000000000000E+00  0.000000000000E+00  0.000000000000E+00  0.000000000000E+00  0.000000000000E+00
  0.000000000000E+00  0.000000000000E+00  0.000000000000E+00  0.000000000000E+00  0.000000000000E+00
  0.000000000000E+00  0.000000000000E+00  0.000000000000E+00  0.000000000000E+00  0.000000000000E+00
  0.000000000000E+00  0.000000000000E+00  0.000000000000E+00  0.000000000000E+00  0.000000000000E+00
  0.000000000000E+00  0.000000000000E+00  0.000000000000E+00  0.000000000000E+00  0.000000000000E+00
 ae wavefunction
 -0.200479523622E-02 -0.205739111341E-02 -0.211136225838E-02 -0.216674438767E-02 -0.222357413244E-02
 -0.228188906126E-02 -0.234172770335E-02 -0.240312957241E-02 -0.246613519099E-02 -0.253078611538E-02
 -0.259712496110E-02 -0.266519542899E-02 -0.273504233182E-02 -0.280671162154E-02 -0.288025041716E-02
 -0.295570703318E-02 -0.303313100872E-02 -0.311257313720E-02 -0.319408549677E-02 -0.327772148129E-02
 -0.336353583206E-02 -0.345158467014E-02 -0.354192552947E-02 -0.363461739052E-02 -0.372972071479E-02
 -0.382729747998E-02 -0.392741121574E-02 -0.403012704040E-02 -0.413551169821E-02 -0.424363359740E-02
 -0.435456284905E-02 -0.446837130656E-02 -0.458513260607E-02 -0.470492220745E-02 -0.482781743623E-02
 -0.495389752620E-02 -0.508324366279E-02 -0.521593902731E-02 -0.535206884184E-02 -0.549172041505E-02
 -0.563498318869E-02 -0.578194878489E-02 -0.593271105425E-02 -0.608736612472E-02 -0.624601245119E-02
 -0.640875086591E-02 -0.657568462959E-02 -0.674691948330E-02 -0.692256370109E-02 -0.710272814329E-02
 -0.728752631054E-02 -0.747707439852E-02 -0.767149135327E-02 -0.787089892724E-02 -0.807542173588E-02
 -0.828518731483E-02 -0.850032617767E-02 -0.872097187421E-02 -0.894726104915E-02 -0.917933350135E-02
 -0.941733224328E-02 -0.966140356101E-02 -0.991169707431E-02 -0.101683657971E-01 -0.104315661978E-01
 -0.107014582606E-01 -0.109782055450E-01 -0.112619752476E-01 -0.115529382618E-01 -0.118512692380E-01
 -0.121571466438E-01 -0.124707528230E-01 -0.127922740546E-01 -0.131219006109E-01 -0.134598268144E-01
 -0.138062510949E-01 -0.141613760437E-01 -0.145254084682E-01 -0.148985594439E-01 -0.152810443654E-01
 -0.156730829955E-01 -0.160748995115E-01 -0.164867225507E-01 -0.169087852518E-01 -0.173413252948E-01
 -0.177845849372E-01 -0.182388110471E-01 -0.187042551327E-01 -0.191811733682E-01 -0.196698266150E-01
 -0.201704804384E-01 -0.206834051198E-01 -0.212088756630E-01 -0.217471717952E-01 -0.222985779614E-01
 -0.228633833123E-01 -0.234418816854E-01 -0.240343715779E-01 -0.246411561115E-01 -0.252625429891E-01
 -0.258988444410E-01 -0.265503771620E-01 -0.272174622377E-01 -0.279004250588E-01 -0.285995952242E-01
 -0.293153064309E-01 -0.300478963495E-01 -0.307977064864E-01 -0.315650820299E-01 -0.323503716796E-01
 -0.331539274594E-01 -0.339761045113E-01 -0.348172608701E-01 -0.356777572178E-01 -0.365579566154E-01
 -0.374582242129E-01 -0.383789269344E-01 -0.393204331372E-01 -0.402831122450E-01 -0.412673343515E-01
 -0.422734697952E-01 -0.433018887015E-01 -0.443529604926E-01 -0.454270533616E-01 -0.465245337109E-01
 -0.476457655515E-01 -0.487911098615E-01 -0.499609239033E-01 -0.511555604951E-01 -0.523753672367E-01
 -0.536206856859E-01 -0.548918504845E-01 -0.561891884300E-01 -0.575130174920E-01 -0.588636457705E-01
 -0.602413703929E-01 -0.616464763473E-01 -0.630792352503E-01 -0.645399040452E-01 -0.660287236291E-01
 -0.675459174040E-01 -0.690916897522E-01 -0.706662244296E-01 -0.722696828759E-01 -0.739022024383E-01
 -0.755638945053E-01 -0.772548425476E-01 -0.789751000628E-01 -0.807246884213E-01 -0.825035946099E-01
 -0.843117688698E-01 -0.861491222259E-01 -0.880155239059E-01 -0.899107986434E-01 -0.918347238646E-01
 -0.937870267555E-01 -0.957673812054E-01 -0.977754046260E-01 -0.998106546435E-01 -0.101872625661E+00
 -0.103960745289E+00 -0.106074370645E+00 -0.108212784519E+00 -0.110375191402E+00 -0.112560713383E+00
 -0.114768385908E+00 -0.116997153405E+00 -0.119245864781E+00 -0.121513268779E+00 -0.123798009209E+00
 -0.126098620059E+00 -0.128413520474E+00 -0.130741009626E+00 -0.133079261469E+00 -0.135426319389E+00
 -0.137780090763E+00 -0.140138341426E+00 -0.142498690060E+00 -0.144858602529E+00 -0.147215386152E+00
 -0.149566183946E+00 -0.151907968856E+00 -0.154237537973E+00 -0.156551506790E+00 -0.158846303488E+00
 -0.161118163304E+00 -0.163363122993E+00 -0.165577015417E+00 -0.167755464300E+00 -0.169893879176E+00
 -0.171987450581E+00 -0.174031145517E+00 -0.176019703244E+00 -0.177947631440E+00 -0.179809202798E+00
 -0.181598452086E+00 -0.183309173763E+00 -0.184934920191E+00 -0.186469000520E+00 -0.187904480316E+00
 -0.189234182005E+00 -0.190450686222E+00 -0.191546334130E+00 -0.192513230821E+00 -0.193343249872E+00
 -0.194028039162E+00 -0.194559028044E+00 -0.194927435985E+00 -0.195124282774E+00 -0.195140400406E+00
 -0.194966446771E+00 -0.194592921247E+00 -0.194010182327E+00 -0.193208467393E+00 -0.192177914775E+00
 -0.190908588187E+00 -0.189390503698E+00 -0.187613659324E+00 -0.185568067392E+00 -0.183243789754E+00
 -0.180630976002E+00 -0.177719904750E+00 -0.174501028106E+00 -0.170965019406E+00 -0.167102824299E+00
 -0.162905715232E+00 -0.158365349397E+00 -0.153473830163E+00 -0.148223772019E+00 -0.142608368995E+00
 -0.136621466559E+00 -0.130257636903E+00 -0.123512257544E+00 -0.116381593119E+00 -0.108862880199E+00
 -0.100954414948E+00 -0.926556433704E-01 -0.839672538614E-01 -0.748912717322E-01 -0.654311553077E-01
 -0.555918931547E-01 -0.453801019263E-01 -0.348041242537E-01 -0.238741260492E-01 -0.126021925308E-01
 -0.100242222288E-02  0.109089818527E-01  0.231136246088E-01  0.355908357804E-01  0.483175921040E-01
  0.612684456322E-01  0.744154590453E-01  0.877281488722E-01  0.101173437623E+00  0.114715615984E+00
  0.128316316411E+00  0.141934499669E+00  0.155526456081E+00  0.169045823406E+00  0.182443623382E+00
  0.195668318967E+00  0.208665894222E+00  0.221379958567E+00  0.233751876848E+00  0.245720926371E+00
  0.257224481716E+00  0.268198227987E+00  0.278576402997E+00  0.288292068790E+00  0.297277412821E+00
  0.305464078961E+00  0.312783528293E+00  0.319167429383E+00  0.324548077465E+00  0.328858841582E+00
  0.332034638488E+00  0.334012431709E+00  0.334731753844E+00  0.334135249819E+00  0.332169238429E+00
  0.328784289059E+00  0.323935810099E+00  0.317584645089E+00  0.309697672168E+00  0.300248401941E+00
  0.289217568418E+00  0.276593707164E+00  0.262373714424E+00  0.246563380501E+00  0.229177890352E+00
  0.210242284028E+00  0.189791869418E+00  0.167872579582E+00  0.144541267021E+00  0.119865927296E+00
  0.939258446209E-01  0.668116523003E-01  0.386253011842E-01  0.947992954818E-02 -0.205003718258E-01
 -0.511809050436E-01 -0.824168254051E-01 -0.114053718520E+00 -0.145928291513E+00 -0.177869168536E+00
 -0.209697772085E+00 -0.241229264201E+00 -0.272273520406E+00 -0.302636119725E+00 -0.332119359309E+00
 -0.360523336589E+00 -0.387647170308E+00 -0.413290428583E+00 -0.437254781540E+00 -0.459345817885E+00
 -0.479374911405E+00 -0.497161031493E+00 -0.512532443041E+00 -0.525328290132E+00 -0.535400078530E+00
 -0.542613068434E+00 -0.546847575882E+00 -0.548000168812E+00 -0.545984737034E+00 -0.540733413269E+00
 -0.532197325565E+00 -0.520347166279E+00 -0.505173569607E+00 -0.486687295510E+00 -0.464919223312E+00
 -0.439920162438E+00 -0.411760490586E+00 -0.380529632339E+00 -0.346335392048E+00 -0.309303156411E+00
 -0.269574981903E+00 -0.227308582680E+00 -0.182676233868E+00 -0.135863604473E+00 -0.870685334045E-01
 -0.364997606615E-01  0.156243749554E-01  0.690772617493E-01  0.123625355374E+00  0.179029525184E+00
  0.235046398855E+00  0.291429697797E+00  0.347931555932E+00  0.404303814662E+00  0.460299286311E+00
  0.515672979766E+00  0.570183279996E+00  0.623593076867E+00  0.675670837719E+00  0.726191619939E+00
  0.774938021967E+00  0.821701071201E+00  0.866281048468E+00  0.908488247234E+00  0.948143663925E+00
  0.985079611680E+00  0.101914024610E+01  0.105018198765E+01  0.107807382472E+01  0.110269748565E+01
  0.112394747671E+01  0.114173100041E+01  0.115596778402E+01  0.116658986568E+01  0.117354139032E+01
  0.117677846398E+01  0.117626909371E+01  0.117199321884E+01  0.116394280813E+01  0.115212198240E+01
  0.113654711041E+01  0.111724681986E+01  0.109426188992E+01  0.106764505016E+01  0.103746046554E+01
  0.100378319590E+01  0.966698374428E+00  0.926300238447E+00  0.882690965876E+00  0.835979328605E+00
  0.786279158693E+00  0.733707633361E+00  0.678383369809E+00  0.620424321822E+00  0.559945486128E+00
  0.000000000000E+00  0.000000000000E+00  0.000000000000E+00  0.000000000000E+00  0.000000000000E+00
  0.000000000000E+00  0.000000000000E+00  0.000000000000E+00  0.000000000000E+00  0.000000000000E+00
  0.000000000000E+00  0.000000000000E+00  0.000000000000E+00  0.000000000000E+00  0.000000000000E+00
  0.000000000000E+00  0.000000000000E+00  0.000000000000E+00  0.000000000000E+00  0.000000000000E+00
  0.000000000000E+00  0.000000000000E+00  0.000000000000E+00  0.000000000000E+00  0.000000000000E+00
  0.000000000000E+00  0.000000000000E+00  0.000000000000E+00  0.000000000000E+00  0.000000000000E+00
  0.000000000000E+00  0.000000000000E+00  0.000000000000E+00  0.000000000000E+00  0.000000000000E+00
  0.000000000000E+00  0.000000000000E+00  0.000000000000E+00  0.000000000000E+00  0.000000000000E+00
  0.000000000000E+00  0.000000000000E+00  0.000000000000E+00  0.000000000000E+00  0.000000000000E+00
 pseudo wavefunction
  0.381284270041E-08  0.402171472318E-08  0.424202900183E-08  0.447441235663E-08  0.471952594581E-08
  0.497806714662E-08  0.525077153948E-08  0.553841500075E-08  0.584181591022E-08  0.616183747948E-08
  0.649939020789E-08  0.685543447302E-08  0.723098326306E-08  0.762710505889E-08  0.804492687402E-08
  0.848563746111E-08  0.895049069406E-08  0.944080913550E-08  0.995798779956E-08  0.105034981209E-07
  0.110788921411E-07  0.116858069245E-07  0.123259692156E-07  0.130012003520E-07  0.137134214464E-07
  0.144646588524E-07  0.152570499294E-07  0.160928491241E-07  0.169744343842E-07  0.179043139244E-07
  0.188851333623E-07  0.199196832454E-07  0.210109069909E-07  0.221619092595E-07  0.233759647893E-07
  0.246565277120E-07  0.260072413811E-07  0.274319487368E-07  0.289347032406E-07  0.305197804069E-07
  0.321916899680E-07  0.339551887048E-07  0.358152939799E-07  0.377772980130E-07  0.398467829381E-07
  0.420296366846E-07  0.443320697297E-07  0.467606327680E-07  0.493222353486E-07  0.520241655337E-07
  0.548741106344E-07  0.578801790814E-07  0.610509234947E-07  0.643953650168E-07  0.679230189789E-07
  0.716439219734E-07  0.755686604084E-07  0.797084006280E-07  0.840749206817E-07  0.886806438341E-07
  0.935386739105E-07  0.986628325791E-07  0.104067698675E-06  0.109768649679E-06  0.115781905467E-06
  0.122124574460E-06  0.128814702296E-06  0.135871323177E-06  0.143314514016E-06  0.151165451567E-06
  0.159446472666E-06  0.168181137790E-06  0.177394298085E-06  0.187112166070E-06  0.197362390217E-06
  0.208174133610E-06  0.219578156923E-06  0.231606905933E-06  0.244294603831E-06  0.257677348597E-06
  0.271793215696E-06  0.286682366408E-06  0.302387162097E-06  0.318952284725E-06  0.336424863983E-06
  0.354854611378E-06  0.374293961669E-06  0.394798222046E-06  0.416425729489E-06  0.439238016739E-06
  0.463299987367E-06  0.488680100431E-06  0.515450565250E-06  0.543687546844E-06  0.573471382634E-06
  0.604886811007E-06  0.638023212408E-06  0.672974863633E-06  0.709841206058E-06  0.748727128557E-06
  0.789743265921E-06  0.833006313626E-06  0.878639359838E-06  0.926772235613E-06  0.977541884275E-06
  0.103109275103E-05  0.108757719394E-05  0.114715591737E-05  0.120999842920E-05  0.127628352314E-05
  0.134619978733E-05  0.141994614097E-05  0.149773240020E-05  0.157977987506E-05  0.166632199913E-05
  0.175760499366E-05  0.185388856810E-05  0.195544665895E-05  0.206256820917E-05  0.217555799019E-05
  0.229473746904E-05  0.242044572289E-05  0.255304040377E-05  0.269289875608E-05  0.284041868989E-05
  0.299601991296E-05  0.316014512483E-05  0.333326127630E-05  0.351586089792E-05  0.370846350122E-05
  0.391161705672E-05  0.412589955287E-05  0.435192064047E-05  0.459032336702E-05  0.484178600624E-05
  0.510702398767E-05  0.538679193204E-05  0.568188579810E-05  0.599314514707E-05  0.632145553110E-05
  0.666775101257E-05  0.703301682138E-05  0.741829215783E-05  0.782467314892E-05  0.825331596673E-05
  0.870544011749E-05  0.918233191083E-05  0.968534811908E-05  0.102159198370E-04  0.107755565527E-04
  0.113658504421E-04  0.119884808979E-04  0.126452193069E-04  0.133379340894E-04  0.140685960137E-04
  0.148392838023E-04  0.156521900453E-04  0.165096274371E-04  0.174140353547E-04  0.183679867971E-04
  0.193741957035E-04  0.204355246731E-04  0.215549931075E-04  0.227357857989E-04  0.239812619887E-04
  0.252949649216E-04  0.266806319240E-04  0.281422050330E-04  0.296838422081E-04  0.313099291571E-04
  0.330250918084E-04  0.348342094672E-04  0.367424286913E-04  0.387551779273E-04  0.408781829472E-04
  0.431174831310E-04  0.454794486393E-04  0.479707985276E-04  0.505986198506E-04  0.533703878133E-04
  0.562939870241E-04  0.593777339118E-04  0.626304003690E-04  0.660612386893E-04  0.696800078694E-04
  0.734970013501E-04  0.775230762751E-04  0.817696843508E-04  0.862489043938E-04  0.909734766596E-04
  0.959568390480E-04  0.101213165290E-03  0.106757405220E-03  0.112605327256E-03  0.118773563196E-03
  0.125279655468E-03  0.132142106959E-03  0.139380433575E-03  0.147015219661E-03  0.155068176464E-03
  0.163562203779E-03  0.172521454969E-03  0.181971405535E-03  0.191938925425E-03  0.202452355305E-03
  0.213541586978E-03  0.225238148206E-03  0.237575292150E-03  0.250588091700E-03  0.264313538941E-03
  0.278790650051E-03  0.294060575917E-03  0.310166718776E-03  0.327154855216E-03  0.345073265882E-03
  0.363972872233E-03  0.383907380762E-03  0.404933435049E-03  0.427110776097E-03  0.450502411386E-03
  0.475174793113E-03  0.501198006125E-03  0.528645966049E-03  0.557596628192E-03  0.588132207767E-03
  0.620339412063E-03  0.654309685208E-03  0.690139466182E-03  0.727930460803E-03  0.767789928431E-03
  0.809830984169E-03  0.854172917389E-03  0.900941527462E-03  0.950269477593E-03  0.100229666772E-02
  0.105717062750E-02  0.111504693045E-02  0.117608963028E-02  0.124047172076E-02  0.130837562012E-02
  0.137999368150E-02  0.145552873061E-02  0.153519463220E-02  0.161921688667E-02  0.170783325847E-02
  0.180129443800E-02  0.189986473846E-02  0.200382282983E-02  0.211346251156E-02  0.222909352602E-02
  0.235104241488E-02  0.247965342041E-02  0.261528943409E-02  0.275833299481E-02  0.290918733906E-02
  0.306827750588E-02  0.323605149890E-02  0.341298150861E-02  0.359956519744E-02  0.379632705087E-02
  0.400381979754E-02  0.422262590169E-02  0.445335913118E-02  0.469666620466E-02  0.495322852134E-02
  0.522376397723E-02  0.550902887138E-02  0.580981990630E-02  0.612697628635E-02  0.646138191835E-02
  0.681396771842E-02  0.718571402947E-02  0.757765315352E-02  0.799087200329E-02  0.842651487731E-02
  0.888578636317E-02  0.936995437298E-02  0.988035331557E-02  0.104183874096E-01  0.109855341416E-01
  0.115833478731E-01  0.122134636004E-01  0.128776008701E-01  0.135775678550E-01  0.143152655901E-01
  0.150926923750E-01  0.159119483402E-01  0.167752401811E-01  0.176848860591E-01  0.186433206674E-01
  0.196531004630E-01  0.207169090574E-01  0.218375627655E-01  0.230180163035E-01  0.242613686295E-01
  0.255708689151E-01  0.269499226371E-01  0.284020977725E-01  0.299311310790E-01  0.315409344395E-01
  0.332356012448E-01  0.350194127847E-01  0.368968446129E-01  0.388725728464E-01  0.409514803535E-01
  0.431386627779E-01  0.454394343405E-01  0.478593333524E-01  0.504041273613E-01  0.530798178497E-01
  0.558926443863E-01  0.588490881266E-01  0.619558745427E-01  0.652199752509E-01  0.686486087906E-01
  0.722492401939E-01  0.760295791659E-01  0.799975766828E-01  0.841614197906E-01  0.885295243731E-01
  0.931105256319E-01  0.979132660027E-01  0.102946780210E+00  0.108220277136E+00  0.113743118159E+00
  0.119524791590E+00  0.125574882824E+00  0.131903039775E+00  0.138518933174E+00  0.145432211270E+00
  0.152652448463E+00  0.160189087386E+00  0.168051373950E+00  0.176248284862E+00  0.184788447134E+00
  0.193680049122E+00  0.202930742661E+00  0.212547535912E+00  0.222536676586E+00  0.232903525318E+00
  0.243652419038E+00  0.254786524337E+00  0.266307680994E+00  0.278216236010E+00  0.290510868739E+00
  0.303188408001E+00  0.316243642347E+00  0.329669125060E+00  0.343454975891E+00  0.357588681980E+00
  0.372054900997E+00  0.386835270072E+00  0.401908224758E+00  0.417248832898E+00  0.432828649023E+00
  0.448615595540E+00  0.464573877738E+00  0.480663940206E+00  0.496842472869E+00  0.513062475205E+00
  0.529273387437E+00  0.545421297373E+00  0.561449231097E+00  0.577297534754E+00  0.592904353061E+00
  0.608206207815E+00  0.623138676440E+00  0.637637166201E+00  0.651637774216E+00  0.665078216332E+00
  0.677898799520E+00  0.690043402289E+00  0.701460415939E+00  0.712103586187E+00  0.721932680153E+00
  0.730913888211E+00  0.739019854459E+00  0.746229214556E+00  0.752525506636E+00  0.757895311712E+00
  0.762325476685E+00  0.765799278469E+00  0.768291405025E+00  0.769761662148E+00  0.770147367569E+00
  0.769352041774E+00  0.767276509886E+00  0.763909021086E+00  0.759272016323E+00  0.753393040251E+00
  0.746304650140E+00  0.738044287953E+00  0.728654087170E+00  0.718180632906E+00  0.706674664988E+00
  0.694190726024E+00  0.680786759936E+00  0.666523667542E+00  0.651464828824E+00  0.635675604273E+00
  0.619222828354E+00  0.602174309133E+00  0.584598346626E+00  0.566563281064E+00  0.548137079283E+00
  0.529386964537E+00  0.510379091823E+00  0.491178267903E+00  0.471847712925E+00  0.452448859052E+00
  0.433041180492E+00  0.413682049372E+00  0.394426613868E+00  0.375327688112E+00  0.356435663350E+00
  0.337798426076E+00  0.319461288345E+00  0.301466928112E+00  0.283855338790E+00  0.266663786574E+00
  0.249926773252E+00  0.233676001245E+00  0.217940336974E+00  0.202745768463E+00  0.188115353716E+00
  0.174069157880E+00  0.160624179432E+00  0.147794268348E+00  0.135590041990E+00  0.124018806819E+00
  0.113084495611E+00  0.102787630309E+00  0.931253199813E-01  0.840913016471E-01  0.756760292119E-01
 ae wavefunction
  0.156603813886E-05  0.164275480360E-05  0.172300498696E-05  0.180696287948E-05  0.189481087699E-05
  0.198673999231E-05  0.208295028827E-05  0.218365133155E-05  0.228906266856E-05  0.239941432525E-05
  0.251494733156E-05  0.263591427152E-05  0.276257986157E-05  0.289522155641E-05  0.303413018686E-05
  0.317961062772E-05  0.333198250099E-05  0.349158091326E-05  0.365875723036E-05  0.383387989204E-05
  0.401733526628E-05  0.420952854855E-05  0.441088470525E-05  0.462184946579E-05  0.484289036513E-05
  0.507449783834E-05  0.531718637344E-05  0.557149571891E-05  0.583799215803E-05  0.611726984293E-05
  0.640995220132E-05  0.671669341275E-05  0.703817996157E-05  0.737513226866E-05  0.772830640809E-05
  0.809849590968E-05  0.848653365852E-05  0.889329388632E-05  0.931969427142E-05  0.976669814108E-05
  0.102353167925E-04  0.107266119298E-04  0.112416982284E-04  0.117817460319E-04  0.123479841874E-04
  0.129417030283E-04  0.135642575106E-04  0.142170705120E-04  0.149016363016E-04  0.156195241892E-04
  0.163723823633E-04  0.171619419289E-04  0.179900211539E-04  0.188585299353E-04  0.197694744983E-04
  0.207249623377E-04  0.217272074164E-04  0.227785356339E-04  0.238813905775E-04  0.250383395729E-04
  0.262520800482E-04  0.275254462281E-04  0.288614161757E-04  0.302631191986E-04  0.317338436407E-04
  0.332770450757E-04  0.348963549276E-04  0.365955895357E-04  0.383787596906E-04  0.402500806631E-04
  0.422139827511E-04  0.442751223757E-04  0.464383937435E-04  0.487089411200E-04  0.510921717301E-04
  0.535937693249E-04  0.562197084519E-04  0.589762694542E-04  0.618700542434E-04  0.649080028874E-04
  0.680974110432E-04  0.714459482862E-04  0.749616773840E-04  0.786530745471E-04  0.825290507219E-04
  0.865989739694E-04  0.908726929806E-04  0.953605617963E-04  0.100073465776E-03  0.105022848893E-03
  0.110220742403E-03  0.115679794975E-03  0.121413304333E-03  0.127435250500E-03  0.133760330713E-03
  0.140403996092E-03  0.147382490149E-03  0.154712889216E-03  0.162413144906E-03  0.170502128670E-03
  0.178999678584E-03  0.187926648447E-03  0.197304959310E-03  0.207157653544E-03  0.217508951568E-03
  0.228384311364E-03  0.239810490895E-03  0.251815613571E-03  0.264429236900E-03  0.277682424458E-03
  0.291607821339E-03  0.306239733239E-03  0.321614209323E-03  0.337769129057E-03  0.354744293169E-03
  0.372581518925E-03  0.391324739890E-03  0.411020110391E-03  0.431716114850E-03  0.453463682223E-03
  0.476316305720E-03  0.500330168064E-03  0.525564272470E-03  0.552080579611E-03  0.579944150783E-03
  0.609223297523E-03  0.639989737913E-03  0.672318759856E-03  0.706289391546E-03  0.741984579411E-03
  0.779491373819E-03  0.818901122782E-03  0.860309673968E-03  0.903817585284E-03  0.949530344324E-03
  0.997558596963E-03  0.104801838537E-02  0.110103139579E-02  0.115672521622E-02  0.121523360453E-02
  0.127669676703E-02  0.134126164792E-02  0.140908222985E-02  0.148031984588E-02  0.155514350301E-02
  0.163373021761E-02  0.171626536293E-02  0.180294302883E-02  0.189396639408E-02  0.198954811118E-02
  0.208991070401E-02  0.219528697832E-02  0.230592044511E-02  0.242206575701E-02  0.254398915750E-02
  0.267196894313E-02  0.280629593833E-02  0.294727398285E-02  0.309522043149E-02  0.325046666576E-02
  0.341335861715E-02  0.358425730141E-02  0.376353936328E-02  0.395159763102E-02  0.414884167983E-02
  0.435569840317E-02  0.457261259108E-02  0.480004751399E-02  0.503848551081E-02  0.528842857963E-02
  0.555039896929E-02  0.582493976969E-02  0.611261549892E-02  0.641401268443E-02  0.672974043581E-02
  0.706043100603E-02  0.740674033793E-02  0.776934859247E-02  0.814896065462E-02  0.854630661285E-02
  0.896214220740E-02  0.939724924245E-02  0.985243595658E-02  0.103285373457E-01  0.108264154321E-01
  0.113469594727E-01  0.118910860991E-01  0.124597393817E-01  0.130538908092E-01  0.136745391738E-01
  0.143227103548E-01  0.149994569860E-01  0.157058580012E-01  0.164430180409E-01  0.172120667119E-01
  0.180141576849E-01  0.188504676157E-01  0.197221948772E-01  0.206305580860E-01  0.215767944065E-01
  0.225621576182E-01  0.235879159266E-01  0.246553494996E-01  0.257657477121E-01  0.269204060773E-01
  0.281206228456E-01  0.293676952493E-01  0.306629153731E-01  0.320075656271E-01  0.334029138014E-01
  0.348502076784E-01  0.363506691817E-01  0.379054880377E-01  0.395158149284E-01  0.411827541119E-01
  0.429073554904E-01  0.446906061029E-01  0.465334210241E-01  0.484366336495E-01  0.504009853495E-01
  0.524271144770E-01  0.545155447145E-01  0.566666727507E-01  0.588807552771E-01  0.611578953003E-01
  0.634980277701E-01  0.659009045248E-01  0.683660785630E-01  0.708928876559E-01  0.734804373186E-01
  0.761275831669E-01  0.788329126949E-01  0.815947265134E-01  0.844110191012E-01  0.872794591297E-01
  0.901973694333E-01  0.931617067070E-01  0.961690410277E-01  0.992155353068E-01  0.102296924794E+00
  0.105408496768E+00  0.108545070554E+00  0.111700978031E+00  0.114870044778E+00  0.118045572030E+00
  0.121220319614E+00  0.124386489992E+00  0.127535713597E+00  0.130659035567E+00  0.133746904036E+00
  0.136789160131E+00  0.139775029854E+00  0.142693118103E+00  0.145531405158E+00  0.148277246055E+00
  0.150917373389E+00  0.153437904142E+00  0.155824351228E+00  0.158061640422E+00  0.160134133336E+00
  0.162025657003E+00  0.163719540537E+00  0.165198659154E+00  0.166445485711E+00  0.167442149785E+00
  0.168170504255E+00  0.168612199309E+00  0.168748763872E+00  0.168561694461E+00  0.168032551505E+00
  0.167143063166E+00  0.165875236617E+00  0.164211476705E+00  0.162134711793E+00  0.159628526530E+00
  0.156677301197E+00  0.153266357178E+00  0.149382108046E+00  0.145012215629E+00  0.140145750331E+00
  0.134773354883E+00  0.128887410541E+00  0.122482204663E+00  0.115554098430E+00  0.108101693341E+00
  0.100125994999E+00  0.916305725073E-01  0.826217117356E-01  0.731085605180E-01  0.631032637936E-01
  0.526210865779E-01  0.416805226123E-01  0.303033864968E-01  0.185148871149E-01  0.634368017623E-02
 -0.617810225784E-02 -0.190148473747E-01 -0.321274844201E-01 -0.454735367916E-01 -0.590072054353E-01
 -0.726794853508E-01 -0.864383164084E-01 -0.100228768385E+00 -0.113993257812E+00 -0.127671790883E+00
 -0.141202222882E+00 -0.154520521991E+00 -0.167561026400E+00 -0.180256690624E+00 -0.192539330855E+00
 -0.204339896248E+00 -0.215588805513E+00 -0.226216383207E+00 -0.236153401718E+00 -0.245331695187E+00
 -0.253684787794E+00 -0.261148487236E+00 -0.267661422876E+00 -0.273165532959E+00 -0.277606514464E+00
 -0.280934246000E+00 -0.283103186738E+00 -0.284072747627E+00 -0.283807627528E+00 -0.282278105506E+00
 -0.279460281719E+00 -0.275336261250E+00 -0.269894278062E+00 -0.263128758565E+00 -0.255040326385E+00
 -0.245635751503E+00 -0.234927847819E+00 -0.222935324158E+00 -0.209682593798E+00 -0.195199548146E+00
 -0.179521299823E+00 -0.162687900591E+00 -0.144744039069E+00 -0.125738722846E+00 -0.105724949271E+00
 -0.847593684263E-01 -0.629019416256E-01 -0.402155978626E-01 -0.167658906619E-01  0.737934307177E-02
  0.321503204233E-01  0.574756447461E-01  0.832826314088E-01  0.109497625624E+00  0.136046310824E+00
  0.162854006280E+00  0.189845952109E+00  0.216947580726E+00  0.244084773656E+00  0.271184103093E+00
  0.298173058471E+00  0.324980258357E+00  0.351535648513E+00  0.377770686390E+00  0.403618511519E+00
  0.429014099358E+00  0.453894394106E+00  0.478198413538E+00  0.501867317748E+00  0.524844434438E+00
  0.547075236675E+00  0.568507276669E+00  0.589090087353E+00  0.608775073755E+00  0.627515421639E+00
  0.645266052639E+00  0.661983647911E+00  0.677626753354E+00  0.692155964207E+00  0.705534177804E+00
  0.717726894609E+00  0.728702540964E+00  0.738432804835E+00  0.746892968787E+00  0.754062188613E+00
  0.759923785218E+00  0.764465471941E+00  0.767679568595E+00  0.769563175541E+00  0.770118315924E+00
  0.769352041774E+00  0.767276509886E+00  0.763909021086E+00  0.759272016323E+00  0.753393040251E+00
  0.746304650140E+00  0.738044287953E+00  0.728654087170E+00  0.718180632906E+00  0.706674664988E+00
  0.694190726024E+00  0.680786759936E+00  0.666523667542E+00  0.651464828824E+00  0.635675604273E+00
  0.619222828354E+00  0.602174309133E+00  0.584598346626E+00  0.566563281064E+00  0.548137079283E+00
  0.529386964537E+00  0.510379091823E+00  0.491178267903E+00  0.471847712925E+00  0.452448859052E+00
  0.433041180492E+00  0.413682049372E+00  0.394426613868E+00  0.375327688112E+00  0.356435663350E+00
  0.337798426076E+00  0.319461288345E+00  0.301466928112E+00  0.283855338790E+00  0.266663786574E+00
  0.249926773252E+00  0.233676001245E+00  0.217940336974E+00  0.202745768463E+00  0.188115353716E+00
  0.174069157880E+00  0.160624179432E+00  0.147794268348E+00  0.135590041990E+00  0.124018806819E+00
  0.113084495611E+00  0.102787630309E+00  0.931253199813E-01  0.840913016471E-01  0.756760292119E-01
 pseudo wavefunction
  0.783198881866E-08  0.826103440879E-08  0.871358362261E-08  0.919092401634E-08  0.969441368007E-08
  0.102254851017E-07  0.107856492423E-07  0.113764998356E-07  0.119997179214E-07  0.126570766293E-07
  0.133504462227E-07  0.140817994206E-07  0.148532170094E-07  0.156668937638E-07  0.165251446907E-07
  0.174304116159E-07  0.183852701311E-07  0.193924369221E-07  0.204547774980E-07  0.215753143437E-07
  0.227572355195E-07  0.240039037314E-07  0.253188658982E-07  0.267058632434E-07  0.281688419389E-07
  0.297119643325E-07  0.313396207906E-07  0.330564421887E-07  0.348673130873E-07  0.367773856289E-07
  0.387920941962E-07  0.409171708740E-07  0.431586617573E-07  0.455229441533E-07  0.480167447258E-07
  0.506471586327E-07  0.534216697135E-07  0.563481717807E-07  0.594349910794E-07  0.626909099762E-07
  0.661251919459E-07  0.697476079273E-07  0.735684641228E-07  0.775986313205E-07  0.818495758231E-07
  0.863333920706E-07  0.910628370508E-07  0.960513665940E-07  0.101313173657E-06  0.106863228702E-06
  0.112717322293E-06  0.118892110017E-06  0.125405159875E-06  0.132275002262E-06  0.139521182693E-06
  0.147164317404E-06  0.155226152017E-06  0.163729623402E-06  0.172698924937E-06  0.182159575343E-06
  0.192138491283E-06  0.202664063951E-06  0.213766239837E-06  0.225476605940E-06  0.237828479628E-06
  0.250857003433E-06  0.264599245035E-06  0.279094302725E-06  0.294383416644E-06  0.310510086111E-06
  0.327520193392E-06  0.345462134233E-06  0.364386955554E-06  0.384348500683E-06  0.405403562549E-06
  0.427612045257E-06  0.451037134531E-06  0.475745477476E-06  0.501807372202E-06  0.529296967827E-06
  0.558292475440E-06  0.588876390621E-06  0.621135728147E-06  0.655162269562E-06  0.691052824303E-06
  0.728909505131E-06  0.768840018659E-06  0.810957971780E-06  0.855383194899E-06  0.902242082855E-06
  0.951667954532E-06  0.100380143216E-05  0.105879084141E-05  0.111679263338E-05  0.117797182973E-05
  0.124250249215E-05  0.131056821765E-05  0.138236266083E-05  0.145809008490E-05  0.153796594280E-05
  0.162221749022E-05  0.171108443210E-05  0.180481960466E-05  0.190368969474E-05  0.200797599852E-05
  0.211797522184E-05  0.223400032435E-05  0.235638140993E-05  0.248546666582E-05  0.262162335324E-05
  0.276523885232E-05  0.291672176416E-05  0.307650307337E-05  0.324503737423E-05  0.342280416404E-05
  0.361030920729E-05  0.380808597463E-05  0.401669716058E-05  0.423673628444E-05  0.446882937887E-05
  0.471363677096E-05  0.497185496089E-05  0.524421860349E-05  0.553150259834E-05  0.583452429437E-05
  0.615414581521E-05  0.649127651196E-05  0.684687555026E-05  0.722195463911E-05  0.761758090917E-05
  0.803487994868E-05  0.847503900578E-05  0.893931036612E-05  0.942901491555E-05  0.994554589799E-05
  0.104903728791E-04  0.110650459269E-04  0.116712000220E-04  0.123105597084E-04  0.129849440000E-04
  0.136962715552E-04  0.144465661355E-04  0.152379623624E-04  0.160727117902E-04  0.169531893115E-04
  0.178818999128E-04  0.188614858008E-04  0.198947339189E-04  0.209845838753E-04  0.221341363052E-04
  0.233466616913E-04  0.246256096670E-04  0.259746188297E-04  0.273975270909E-04  0.288983825937E-04
  0.304814552276E-04  0.321512487747E-04  0.339125137207E-04  0.357702607671E-04  0.377297750839E-04
  0.397966313429E-04  0.419767095736E-04  0.442762118880E-04  0.467016801211E-04  0.492600144370E-04
  0.519584929542E-04  0.548047924453E-04  0.578070101702E-04  0.609736869046E-04  0.643138312295E-04
  0.678369451501E-04  0.715530511181E-04  0.754727205323E-04  0.796071038002E-04  0.839679620448E-04
  0.885677005475E-04  0.934194040208E-04  0.985368738123E-04  0.103934667145E-03  0.109628138503E-03
  0.115633483288E-03  0.121967783857E-03  0.128649058083E-03  0.135696310577E-03  0.143129586703E-03
  0.150970029557E-03  0.159239940059E-03  0.167962840330E-03  0.177163540542E-03  0.186868209419E-03
  0.197104448593E-03  0.207901371030E-03  0.219289683743E-03  0.231301775023E-03  0.243971806444E-03
  0.257335809892E-03  0.271431789904E-03  0.286299831589E-03  0.301982214456E-03  0.318523532452E-03
  0.335970820564E-03  0.354373688327E-03  0.373784460632E-03  0.394258326210E-03  0.415853494233E-03
  0.438631359447E-03  0.462656676330E-03  0.487997742739E-03  0.514726593576E-03  0.542919205015E-03
  0.572655709860E-03  0.604020624638E-03  0.637103089062E-03  0.671997118541E-03  0.708801870433E-03
  0.747621924789E-03  0.788567580373E-03  0.831755166780E-03  0.877307373525E-03  0.925353597006E-03
  0.976030306323E-03  0.102948142895E-02  0.108585875735E-02  0.114532237760E-02  0.120804112131E-02
  0.127419304198E-02  0.134396591718E-02  0.141755777783E-02  0.149517746620E-02  0.157704522397E-02
  0.166339331208E-02  0.175446666401E-02  0.185052357424E-02  0.195183642383E-02  0.205869244498E-02
  0.217139452670E-02  0.229026206374E-02  0.241563185104E-02  0.254785902600E-02  0.268731806131E-02
  0.283440381063E-02  0.298953261019E-02  0.315314343897E-02  0.332569914058E-02  0.350768771006E-02
  0.369962364877E-02  0.390204939101E-02  0.411553680586E-02  0.434068877823E-02  0.457814087285E-02
  0.482856308561E-02  0.509266168634E-02  0.537118115786E-02  0.566490623566E-02  0.597466405345E-02
  0.630132639951E-02  0.664581208921E-02  0.700908945931E-02  0.739217898964E-02  0.779615605830E-02
  0.822215383635E-02  0.867136632855E-02  0.914505156666E-02  0.964453496209E-02  0.101712128249E-01
  0.107265560564E-01  0.113121140226E-01  0.119295186162E-01  0.125804885147E-01  0.132668336425E-01
  0.139904598447E-01  0.147533737813E-01  0.155576880486E-01  0.164056265371E-01  0.172995300335E-01
  0.182418620741E-01  0.192352150581E-01  0.202823166284E-01  0.213860363257E-01  0.225493925248E-01
  0.237755596574E-01  0.250678757285E-01  0.264298501297E-01  0.278651717552E-01  0.293777174208E-01
  0.309715605899E-01  0.326509804041E-01  0.344204710187E-01  0.362847512364E-01  0.382487744355E-01
  0.403177387818E-01  0.424970977123E-01  0.447925706751E-01  0.472101541047E-01  0.497561326100E-01
  0.524370903429E-01  0.552599225143E-01  0.582318470131E-01  0.613604160812E-01  0.646535279848E-01
  0.681194386163E-01  0.717667729490E-01  0.756045362573E-01  0.796421250000E-01  0.838893372529E-01
  0.883563825599E-01  0.930538910546E-01  0.979929216880E-01  0.103184969374E+00  0.108641970845E+00
  0.114376308982E+00  0.120400815364E+00  0.126728770736E+00  0.133373903091E+00  0.140350382996E+00
  0.147672815777E+00  0.155356230127E+00  0.163416062676E+00  0.171868137983E+00  0.180728643399E+00
  0.190014098185E+00  0.199741316201E+00  0.209927361458E+00  0.220589495737E+00  0.231745117446E+00
  0.243411690810E+00  0.255606664433E+00  0.268347378229E+00  0.281650957633E+00  0.295534193983E+00
  0.310013409899E+00  0.325104308445E+00  0.340821804845E+00  0.357179839498E+00  0.374191171042E+00
  0.391867148230E+00  0.410217459448E+00  0.429249858757E+00  0.448969867468E+00  0.469380450405E+00
  0.490481666225E+00  0.512270291402E+00  0.534739417823E+00  0.557878024328E+00  0.581670523010E+00
  0.606096281637E+00  0.631129124249E+00  0.656736812717E+00  0.682880512959E+00  0.709514250468E+00
  0.736584360950E+00  0.764028943061E+00  0.791777321577E+00  0.819749530748E+00  0.847855829058E+00
  0.875996258175E+00  0.904060260346E+00  0.931926369980E+00  0.959461996467E+00  0.986523316337E+00
  0.101295529363E+01  0.103859184756E+01  0.106325618624E+01  0.108676132389E+01  0.110891079691E+01
  0.112949959060E+01  0.114831528354E+01  0.116513941000E+01  0.117974903253E+01  0.119191850638E+01
  0.120142140512E+01  0.120803256276E+01  0.121153017117E+01  0.121169785503E+01  0.120832662835E+01
  0.120121661997E+01  0.119017844076E+01  0.117503405499E+01  0.115561701535E+01  0.113177192873E+01
  0.110335304166E+01  0.107022187526E+01  0.103224390429E+01  0.989284367990E+00  0.941203426613E+00
  0.887851039681E+00  0.829097610794E+00  0.764954322711E+00  0.695497177459E+00  0.620838430749E+00
  0.000000000000E+00  0.000000000000E+00  0.000000000000E+00  0.000000000000E+00  0.000000000000E+00
  0.000000000000E+00  0.000000000000E+00  0.000000000000E+00  0.000000000000E+00  0.000000000000E+00
  0.000000000000E+00  0.000000000000E+00  0.000000000000E+00  0.000000000000E+00  0.000000000000E+00
  0.000000000000E+00  0.000000000000E+00  0.000000000000E+00  0.000000000000E+00  0.000000000000E+00
  0.000000000000E+00  0.000000000000E+00  0.000000000000E+00  0.000000000000E+00  0.000000000000E+00
  0.000000000000E+00  0.000000000000E+00  0.000000000000E+00  0.000000000000E+00  0.000000000000E+00
  0.000000000000E+00  0.000000000000E+00  0.000000000000E+00  0.000000000000E+00  0.000000000000E+00
  0.000000000000E+00  0.000000000000E+00  0.000000000000E+00  0.000000000000E+00  0.000000000000E+00
  0.000000000000E+00  0.000000000000E+00  0.000000000000E+00  0.000000000000E+00  0.000000000000E+00
 ae wavefunction
  0.300100168285E-05  0.314801401330E-05  0.330179763304E-05  0.346268634390E-05  0.363102967151E-05
  0.380719365426E-05  0.399156167311E-05  0.418453532128E-05  0.438653531614E-05  0.459800245707E-05
  0.481939863043E-05  0.505120786369E-05  0.529393743370E-05  0.554811902769E-05  0.581430996558E-05
  0.609309447981E-05  0.638508506294E-05  0.669092388066E-05  0.701128425636E-05  0.734687223214E-05
  0.769842820612E-05  0.806672865554E-05  0.845258794477E-05  0.885686022635E-05  0.928044143894E-05
  0.972427140469E-05  0.101893360385E-04  0.106766696621E-04  0.111873574458E-04  0.117225379650E-04
  0.122834058963E-04  0.128712148459E-04  0.134872803258E-04  0.141329828808E-04  0.148097713780E-04
  0.155191664611E-04  0.162627641903E-04  0.170422398586E-04  0.178593520160E-04  0.187159466895E-04
  0.196139618313E-04  0.205554319880E-04  0.215424932161E-04  0.225773882487E-04  0.236624719295E-04
  0.248002169283E-04  0.259932197521E-04  0.272442070660E-04  0.285560423428E-04  0.299317328557E-04
  0.313744370342E-04  0.328874722005E-04  0.344743227070E-04  0.361386484963E-04  0.378842941039E-04
  0.397152981293E-04  0.416359031973E-04  0.436505664365E-04  0.457639705016E-04  0.479810351676E-04
  0.503069295248E-04  0.527470848077E-04  0.553072078882E-04  0.579932954696E-04  0.608116490156E-04
  0.637688904542E-04  0.668719786950E-04  0.701282270019E-04  0.735453212661E-04  0.771313392249E-04
  0.808947706729E-04  0.848445387250E-04  0.889900221654E-04  0.933410789667E-04  0.979080710113E-04
  0.102701890090E-03  0.107733985246E-03  0.113016391521E-03  0.118561760180E-03  0.124383390495E-03
  0.130495263157E-03  0.136912075395E-03  0.143649277916E-03  0.150723113705E-03  0.158150658836E-03
  0.165949865350E-03  0.174139606321E-03  0.182739723225E-03  0.191771075707E-03  0.201255593880E-03
  0.211216333274E-03  0.221677532559E-03  0.232664674199E-03  0.244204548142E-03  0.256325318737E-03
  0.269056594999E-03  0.282429504400E-03  0.296476770351E-03  0.311232793558E-03  0.326733737415E-03
  0.343017617659E-03  0.360124396457E-03  0.378096081146E-03  0.396976827849E-03  0.416813050183E-03
  0.437653533298E-03  0.459549553499E-03  0.482555003693E-03  0.506726524944E-03  0.532123644386E-03
  0.558808919816E-03  0.586848091230E-03  0.616310239625E-03  0.647267953399E-03  0.679797502651E-03
  0.713979021757E-03  0.749896700548E-03  0.787638984479E-03  0.827298784149E-03  0.868973694602E-03
  0.912766224731E-03  0.958784037322E-03  0.100714020003E-02  0.105795344788E-02  0.111134845754E-02
  0.116745613412E-02  0.122641391060E-02  0.128836606079E-02  0.135346402595E-02  0.142186675577E-02
  0.149374106426E-02  0.156926200093E-02  0.164861323787E-02  0.173198747332E-02  0.181958685214E-02
  0.191162340390E-02  0.200831949895E-02  0.210990832316E-02  0.221663437187E-02  0.232875396347E-02
  0.244653577327E-02  0.257026138821E-02  0.270022588273E-02  0.283673841655E-02  0.298012285467E-02
  0.313071841005E-02  0.328888030953E-02  0.345498048320E-02  0.362940827767E-02  0.381257119357E-02
  0.400489564744E-02  0.420682775829E-02  0.441883415886E-02  0.464140283178E-02  0.487504397038E-02
  0.512029086421E-02  0.537770080894E-02  0.564785604029E-02  0.593136469149E-02  0.622886177373E-02
  0.654101017862E-02  0.686850170196E-02  0.721205808740E-02  0.757243208886E-02  0.795040854993E-02
  0.834680549859E-02  0.876247525500E-02  0.919830555004E-02  0.965522065194E-02  0.101341824978E-01
  0.106361918269E-01  0.111622893115E-01  0.117135566810E-01  0.122911178360E-01  0.128961399444E-01
  0.135298345168E-01  0.141934584529E-01  0.148883150528E-01  0.156157549860E-01  0.163771772087E-01
  0.171740298222E-01  0.180078108617E-01  0.188800690044E-01  0.197924041874E-01  0.207464681218E-01
  0.217439646897E-01  0.227866502113E-01  0.238763335650E-01  0.250148761466E-01  0.262041916472E-01
  0.274462456344E-01  0.287430549142E-01  0.300966866547E-01  0.315092572474E-01  0.329829308841E-01
  0.345199178227E-01  0.361224723170E-01  0.377928901809E-01  0.395335059591E-01  0.413466896732E-01
  0.432348431101E-01  0.452003956204E-01  0.472457993910E-01  0.493735241556E-01  0.515860513056E-01
  0.538858673629E-01  0.562754567737E-01  0.587572939831E-01  0.613338347481E-01  0.640075066470E-01
  0.667806987411E-01  0.696557503462E-01  0.726349388699E-01  0.757204666714E-01  0.789144469015E-01
  0.822188882801E-01  0.856356787723E-01  0.891665681226E-01  0.928131492120E-01  0.965768382040E-01
  0.100458853450E+00  0.104460193126E+00  0.108581611583E+00  0.112823594391E+00  0.117186332071E+00
  0.121669692513E+00  0.126273192080E+00  0.130995965421E+00  0.135836734021E+00  0.140793773514E+00
  0.145864879815E+00  0.151047334150E+00  0.156337867034E+00  0.161732621327E+00  0.167227114461E+00
  0.172816199990E+00  0.178494028613E+00  0.184254008856E+00  0.190088767625E+00  0.195990110852E+00
  0.201948984497E+00  0.207955436180E+00  0.213998577746E+00  0.220066549065E+00  0.226146483377E+00
  0.232224474511E+00  0.238285546255E+00  0.244313624175E+00  0.250291510151E+00  0.256200859885E+00
  0.262022163696E+00  0.267734730940E+00  0.273316678547E+00  0.278744924296E+00  0.283995185648E+00
  0.289041985172E+00  0.293858663726E+00  0.298417402685E+00  0.302689256548E+00  0.306644197153E+00
  0.310251170623E+00  0.313478167890E+00  0.316292309409E+00  0.318659944323E+00  0.320546764159E+00
  0.321917930950E+00  0.322738219695E+00  0.322972175112E+00  0.322584282721E+00  0.321539154349E+00
  0.319801728091E+00  0.317337482726E+00  0.314112666359E+00  0.310094539003E+00  0.305251628550E+00
  0.299553999500E+00  0.292973533592E+00  0.285484221342E+00  0.277062463301E+00  0.267687379641E+00
  0.257341126469E+00  0.246009217021E+00  0.233680845658E+00  0.220349212309E+00  0.206011844730E+00
  0.190670915711E+00  0.174333552031E+00  0.157012131764E+00  0.138724566249E+00  0.119494562860E+00
  0.993518645114E-01  0.783324617384E-01  0.564787731177E-01  0.338397897779E-01  0.104711797959E-01
 -0.135646516716E-01 -0.381985506155E-01 -0.633546548202E-01 -0.889504909708E-01 -0.114897132167E+00
 -0.141099419375E+00 -0.167456249186E+00 -0.193860927774E+00 -0.220201586460E+00 -0.246361647918E+00
 -0.272220324748E+00 -0.297653127258E+00 -0.322532359374E+00 -0.346727595138E+00 -0.370106154979E+00
 -0.392533633790E+00 -0.413874556487E+00 -0.433993227040E+00 -0.452754782102E+00 -0.470026384165E+00
 -0.485678443597E+00 -0.499585775451E+00 -0.511628651960E+00 -0.521693759510E+00 -0.529675086263E+00
 -0.535474760494E+00 -0.539003845347E+00 -0.540183082871E+00 -0.538943573223E+00 -0.535227372377E+00
 -0.528987993948E+00 -0.520190804542E+00 -0.508813307413E+00 -0.494845313695E+00 -0.478289004519E+00
 -0.459158890293E+00 -0.437481675187E+00 -0.413296036642E+00 -0.386652329838E+00 -0.357612228102E+00
 -0.326248309507E+00 -0.292643600179E+00 -0.256891083896E+00 -0.219093186880E+00 -0.179361245988E+00
 -0.137814966988E+00 -0.945818792433E-01 -0.497967913867E-01 -0.360125244190E-02  0.438569786473E-01
  0.924244519876E-01  0.141942531926E+00  0.192247886045E+00  0.243172955737E+00  0.294546405845E+00
  0.346193551592E+00  0.397936759823E+00  0.449595823833E+00  0.500988310746E+00  0.551929881635E+00
  0.602234586465E+00  0.651715136260E+00  0.700183156088E+00  0.747449421577E+00  0.793324080361E+00
  0.837616856477E+00  0.880137232340E+00  0.920694598941E+00  0.959098363776E+00  0.995158008820E+00
  0.102868309868E+01  0.105948325496E+01  0.108736812929E+01  0.111214742663E+01  0.113363103967E+01
  0.115162935629E+01  0.116595378572E+01  0.117641753102E+01  0.118283660481E+01  0.118503106936E+01
  0.118282646675E+01  0.117605539530E+01  0.116455920995E+01  0.114818988261E+01  0.112681179848E+01
  0.110030379948E+01  0.106856120776E+01  0.103149797725E+01  0.989048926997E+00  0.941172070496E+00
  0.887851039681E+00  0.829097610794E+00  0.764954322711E+00  0.695497177459E+00  0.620838430749E+00
  0.000000000000E+00  0.000000000000E+00  0.000000000000E+00  0.000000000000E+00  0.000000000000E+00
  0.000000000000E+00  0.000000000000E+00  0.000000000000E+00  0.000000000000E+00  0.000000000000E+00
  0.000000000000E+00  0.000000000000E+00  0.000000000000E+00  0.000000000000E+00  0.000000000000E+00
  0.000000000000E+00  0.000000000000E+00  0.000000000000E+00  0.000000000000E+00  0.000000000000E+00
  0.000000000000E+00  0.000000000000E+00  0.000000000000E+00  0.000000000000E+00  0.000000000000E+00
  0.000000000000E+00  0.000000000000E+00  0.000000000000E+00  0.000000000000E+00  0.000000000000E+00
  0.000000000000E+00  0.000000000000E+00  0.000000000000E+00  0.000000000000E+00  0.000000000000E+00
  0.000000000000E+00  0.000000000000E+00  0.000000000000E+00  0.000000000000E+00  0.000000000000E+00
  0.000000000000E+00  0.000000000000E+00  0.000000000000E+00  0.000000000000E+00  0.000000000000E+00
 pseudo wavefunction
  0.130137315462E-12  0.140976070852E-12  0.152717554393E-12  0.165436951667E-12  0.179215710241E-12
  0.194142061210E-12  0.210311584180E-12  0.227827819301E-12  0.246802930279E-12  0.267358422605E-12
  0.289625921606E-12  0.313748015300E-12  0.339879167437E-12  0.368186706605E-12  0.398851897695E-12
  0.432071102622E-12  0.468057037709E-12  0.507040135795E-12  0.549270021797E-12  0.595017111158E-12
  0.644574341430E-12  0.698259048074E-12  0.756414996492E-12  0.819414583297E-12  0.887661220924E-12
  0.961591920844E-12  0.104168009194E-11  0.112843857191E-11  0.122242291123E-11  0.132423493052E-11
  0.143452657430E-11  0.155400408559E-11  0.168343252838E-11  0.182364068655E-11  0.197552637096E-11
  0.214006216853E-11  0.231830167007E-11  0.251138621687E-11  0.272055220921E-11  0.294713902350E-11
  0.319259758888E-11  0.345849967814E-11  0.374654797239E-11  0.405858696406E-11  0.439661476794E-11
  0.476279591593E-11  0.515947521745E-11  0.558919277419E-11  0.605470024546E-11  0.655897846821E-11
  0.710525654451E-11  0.769703251889E-11  0.833809577772E-11  0.903255131421E-11  0.978484601443E-11
  0.105997971325E-10  0.114826231375E-10  0.124389771293E-10  0.134749830382E-10  0.145972748384E-10
  0.158130390282E-10  0.171300606484E-10  0.185567731330E-10  0.201023123116E-10  0.217765749106E-10
  0.235902819253E-10  0.255550472713E-10  0.276834521528E-10  0.299891256257E-10  0.324868318698E-10
  0.351925647299E-10  0.381236501309E-10  0.412988570230E-10  0.447385175670E-10  0.484646573293E-10
  0.525011363207E-10  0.568738017820E-10  0.616106536944E-10  0.667420240747E-10  0.723007712039E-10
  0.783224900320E-10  0.848457401070E-10  0.919122924880E-10  0.995673972216E-10  0.107860073097E-09
  0.116843421533E-09  0.126574966608E-09  0.137117023410E-09  0.148537097067E-09  0.160908315007E-09
  0.174309895226E-09  0.188827653549E-09  0.204554553146E-09  0.221591299815E-09  0.240046986838E-09
  0.260039793548E-09  0.281697742087E-09  0.305159517174E-09  0.330575354165E-09  0.358108001069E-09
  0.387933760688E-09  0.420243619553E-09  0.455244470890E-09  0.493160439440E-09  0.534234316616E-09
  0.578729115193E-09  0.626929753486E-09  0.679144879793E-09  0.735708848790E-09  0.796983862539E-09
  0.863362289804E-09  0.935269178548E-09  0.101316497768E-08  0.109754848547E-08  0.118896004358E-08
  0.128798499707E-08  0.139525744254E-08  0.151146428858E-08  0.163734965422E-08  0.177371963387E-08
  0.192144745899E-08  0.208147908978E-08  0.225483927246E-08  0.244263810113E-08  0.264607812609E-08
  0.286646205422E-08  0.310520109070E-08  0.336382397542E-08  0.364398677207E-08  0.394748347253E-08
  0.427625748435E-08  0.463241407515E-08  0.501823385329E-08  0.543618737144E-08  0.588895094630E-08
  0.637942379598E-08  0.691074660460E-08  0.748632163312E-08  0.810983450509E-08  0.878527780680E-08
  0.951697665309E-08  0.103096163823E-07  0.111682725577E-07  0.120984434683E-07  0.131060853351E-07
  0.141976504512E-07  0.153801284969E-07  0.166610912967E-07  0.180487413036E-07  0.195519641211E-07
  0.211803853999E-07  0.229444324730E-07  0.248554011238E-07  0.269255279157E-07  0.291680685446E-07
  0.315973827173E-07  0.342290260993E-07  0.370798499197E-07  0.401681088715E-07  0.435135779989E-07
  0.471376793184E-07  0.510636189856E-07  0.553165358857E-07  0.599236625984E-07  0.649144997691E-07
  0.703210050007E-07  0.761777974779E-07  0.825223796314E-07  0.893953772636E-07  0.968407996711E-07
  0.104906321430E-06  0.113643587649E-06  0.123108544643E-06  0.133361798144E-06  0.144469001345E-06
  0.156501275253E-06  0.169535664062E-06  0.183655628426E-06  0.198951579832E-06  0.215521459458E-06
  0.233471365236E-06  0.252916231145E-06  0.273980563054E-06  0.296799235851E-06  0.321518356949E-06
  0.348296201691E-06  0.377304226651E-06  0.408728167307E-06  0.442769227120E-06  0.479645365618E-06
  0.519592693733E-06  0.562866985323E-06  0.609745314543E-06  0.660527829553E-06  0.715539673894E-06
  0.775133067845E-06  0.839689563065E-06  0.909622484940E-06  0.985379578274E-06  0.106744587323E-05
  0.115634678987E-05  0.125265150113E-05  0.135697657574E-05  0.146998992444E-05  0.159241507462E-05
  0.172503580081E-05  0.186870114059E-05  0.202433082798E-05  0.219292117908E-05  0.237555146749E-05
  0.257339083038E-05  0.278770574929E-05  0.301986815336E-05  0.327136419696E-05  0.354380376765E-05
  0.383893078525E-05  0.415863435775E-05  0.450496086540E-05  0.488012705003E-05  0.528653419322E-05
  0.572678347377E-05  0.620369260253E-05  0.672031384066E-05  0.727995351632E-05  0.788619316423E-05
  0.854291242287E-05  0.925431383535E-05  0.100249497119E-04  0.108597512254E-04  0.117640599248E-04
  0.127436618675E-04  0.138048245884E-04  0.149543371391E-04  0.161995534550E-04  0.175484393227E-04
  0.190096232487E-04  0.205924515522E-04  0.223070480308E-04  0.241643785795E-04  0.261763211716E-04
  0.283557416469E-04  0.307165757863E-04  0.332739181938E-04  0.360441185482E-04  0.390448858339E-04
  0.422954012101E-04  0.458164402312E-04  0.496305051915E-04  0.537619684275E-04  0.582372274839E-04
  0.630848731185E-04  0.683358712054E-04  0.740237596791E-04  0.801848617580E-04  0.868585167846E-04
  0.940873301301E-04  0.101917443728E-03  0.110398828927E-03  0.119585603497E-03  0.129536374759E-03
  0.140314610983E-03  0.151989043350E-03  0.164634100997E-03  0.178330381815E-03  0.193165161930E-03
  0.209232947004E-03  0.226636068759E-03  0.245485330387E-03  0.265900704802E-03  0.288012090020E-03
  0.311960126261E-03  0.337897079756E-03  0.365987798633E-03  0.396410746637E-03  0.429359120959E-03
  0.465042060862E-03  0.503685954364E-03  0.545535850761E-03  0.590856987405E-03  0.639936439751E-03
  0.693084904413E-03  0.750638625678E-03  0.812961476707E-03  0.880447207528E-03  0.953521872751E-03
  0.103264645297E-02  0.111831968475E-02  0.121108111526E-02  0.131151439863E-02  0.142025085253E-02
  0.153797329453E-02  0.166542017933E-02  0.180339005926E-02  0.195274639212E-02  0.211442272187E-02
  0.228942825940E-02  0.247885389249E-02  0.268387865565E-02  0.290577669264E-02  0.314592474639E-02
  0.340581021299E-02  0.368703979874E-02  0.399134882107E-02  0.432061119660E-02  0.467685016176E-02
  0.506224977353E-02  0.547916724013E-02  0.593014613368E-02  0.641793053886E-02  0.694548019377E-02
  0.751598668088E-02  0.813289072780E-02  0.879990067896E-02  0.952101220048E-02  0.103005292813E-01
  0.111430865943E-01  0.120536732795E-01  0.130376582147E-01  0.141008168303E-01  0.152493595314E-01
  0.164899617799E-01  0.178297958878E-01  0.192765645688E-01  0.208385362845E-01  0.225245824169E-01
  0.243442162842E-01  0.263076340106E-01  0.284257572384E-01  0.307102776633E-01  0.331737033458E-01
  0.358294067366E-01  0.386916743265E-01  0.417757578031E-01  0.450979265698E-01  0.486755214461E-01
  0.525270093344E-01  0.566720385993E-01  0.611314948655E-01  0.659275568956E-01  0.710837521672E-01
  0.766250117228E-01  0.825777238222E-01  0.889697858828E-01  0.958306541554E-01  0.103191390546E+00
  0.111084705968E+00  0.119544999577E+00  0.128608393263E+00  0.138312760727E+00  0.148697750543E+00
  0.159804802606E+00  0.171677157446E+00  0.184359857945E+00  0.197899743117E+00  0.212345433709E+00
  0.227747309515E+00  0.244157478445E+00  0.261629737495E+00  0.280219525906E+00  0.299983870822E+00
  0.320981325769E+00  0.343271902083E+00  0.366916993121E+00  0.391979290473E+00  0.418522690459E+00
  0.446612187809E+00  0.476313751488E+00  0.507694174907E+00  0.540820889275E+00  0.575761724192E+00
  0.612584593846E+00  0.651357079945E+00  0.692145873872E+00  0.735016030244E+00  0.780029972207E+00
  0.827246175487E+00  0.876717443721E+00  0.928488672595E+00  0.982593985485E+00  0.103905311012E+01
  0.109786685580E+01  0.115901154625E+01  0.122243226724E+01  0.128803480376E+01  0.135567617322E+01
  0.142515371296E+01  0.149624983200E+01  0.156892031821E+01  0.164316835967E+01  0.171899399556E+01
  0.000000000000E+00  0.000000000000E+00  0.000000000000E+00  0.000000000000E+00  0.000000000000E+00
  0.000000000000E+00  0.000000000000E+00  0.000000000000E+00  0.000000000000E+00  0.000000000000E+00
  0.000000000000E+00  0.000000000000E+00  0.000000000000E+00  0.000000000000E+00  0.000000000000E+00
  0.000000000000E+00  0.000000000000E+00  0.000000000000E+00  0.000000000000E+00  0.000000000000E+00
  0.000000000000E+00  0.000000000000E+00  0.000000000000E+00  0.000000000000E+00  0.000000000000E+00
  0.000000000000E+00  0.000000000000E+00  0.000000000000E+00  0.000000000000E+00  0.000000000000E+00
  0.000000000000E+00  0.000000000000E+00  0.000000000000E+00  0.000000000000E+00  0.000000000000E+00
  0.000000000000E+00  0.000000000000E+00  0.000000000000E+00  0.000000000000E+00  0.000000000000E+00
  0.000000000000E+00  0.000000000000E+00  0.000000000000E+00  0.000000000000E+00  0.000000000000E+00
 ae wavefunction
 -0.442414775376E-09 -0.476786794690E-09 -0.513576449503E-09 -0.552971178195E-09 -0.595171866366E-09
 -0.640393894163E-09 -0.688868261389E-09 -0.740842795496E-09 -0.796583448956E-09 -0.856375693686E-09
 -0.920526019660E-09 -0.989363545647E-09 -0.106324175192E-08 -0.114254034256E-08 -0.122766725016E-08
 -0.131906079073E-08 -0.141719198406E-08 -0.152256704951E-08 -0.163573009235E-08 -0.175726599598E-08
 -0.188780353412E-08 -0.202801872293E-08 -0.217863842900E-08 -0.234044425518E-08 -0.251427672552E-08
 -0.270103979102E-08 -0.290170568603E-08 -0.311732015429E-08 -0.334900808536E-08 -0.359797958005E-08
 -0.386553649127E-08 -0.415307946861E-08 -0.446211555087E-08 -0.479426634691E-08 -0.515127685421E-08
 -0.553502496028E-08 -0.594753168994E-08 -0.639097224312E-08 -0.686768790265E-08 -0.738019886294E-08
 -0.793121806940E-08 -0.852366613403E-08 -0.916068742249E-08 -0.984566739959E-08 -0.105822513358E-07
 -0.113743644816E-07 -0.122262338263E-07 -0.131424115673E-07 -0.141278004256E-07 -0.151876809544E-07
 -0.163277409994E-07 -0.175541074820E-07 -0.188733806907E-07 -0.202926712801E-07 -0.218196401942E-07
 -0.234625417464E-07 -0.252302701095E-07 -0.271324094865E-07 -0.291792882582E-07 -0.313820374234E-07
 -0.337526536777E-07 -0.363040674996E-07 -0.390502166467E-07 -0.420061254937E-07 -0.451879906825E-07
 -0.486132735876E-07 -0.523008001460E-07 -0.562708686399E-07 -0.605453660720E-07 -0.651478938232E-07
 -0.701039033329E-07 -0.754408426231E-07 -0.811883145017E-07 -0.873782474358E-07 -0.940450800622E-07
 -0.101225960455E-06 -0.108960961352E-06 -0.117293312576E-06 -0.126269652083E-06 -0.135940297114E-06
 -0.146359537050E-06 -0.157585949740E-06 -0.169682743203E-06 -0.182718124676E-06 -0.196765699293E-06
 -0.211904900727E-06 -0.228221456352E-06 -0.245807889763E-06 -0.264764063579E-06 -0.285197765826E-06
 -0.307225343374E-06 -0.330972386198E-06 -0.356574466596E-06 -0.384177937691E-06 -0.413940796085E-06
 -0.446033613705E-06 -0.480640544471E-06 -0.517960411747E-06 -0.558207883091E-06 -0.601614739216E-06
 -0.648431244843E-06 -0.698927629477E-06 -0.753395686977E-06 -0.812150503413E-06 -0.875532323443E-06
 -0.943908566338E-06 -0.101767600352E-05 -0.109726311062E-05 -0.118313260783E-05 -0.127578420379E-05
 -0.137575755892E-05 -0.148363548597E-05 -0.160004740648E-05 -0.172567308349E-05 -0.186124665265E-05
 -0.200756097506E-05 -0.216547233772E-05 -0.233590552889E-05 -0.251985931808E-05 -0.271841237285E-05
 -0.293272964651E-05 -0.316406927443E-05 -0.341379001854E-05 -0.368335930351E-05 -0.397436189103E-05
 -0.428850924229E-05 -0.462764962260E-05 -0.499377900652E-05 -0.538905284590E-05 -0.581579876813E-05
 -0.627653027770E-05 -0.677396153853E-05 -0.731102332168E-05 -0.789088020862E-05 -0.851694914747E-05
 -0.919291946700E-05 -0.992277446066E-05 -0.107108146623E-04 -0.115616829430E-04 -0.124803915696E-04
 -0.134723513747E-04 -0.145434031998E-04 -0.156998517854E-04 -0.169485022940E-04 -0.182966996657E-04
 -0.197523710218E-04 -0.213240713464E-04 -0.230210326930E-04 -0.248532171814E-04 -0.268313740688E-04
 -0.289671012002E-04 -0.312729111637E-04 -0.337623025021E-04 -0.364498363526E-04 -0.393512189182E-04
 -0.424833901978E-04 -0.458646194357E-04 -0.495146077799E-04 -0.534545986742E-04 -0.577074965460E-04
 -0.622979943867E-04 -0.672527108659E-04 -0.726003376606E-04 -0.783717977281E-04 -0.846004152985E-04
 -0.913220984132E-04 -0.985755348923E-04 -0.106402402666E-03 -0.114847595473E-03 -0.123959464977E-03
 -0.133790080443E-03 -0.144395507163E-03 -0.155836104899E-03 -0.168176847697E-03 -0.181487666512E-03
 -0.195843816127E-03 -0.211326268009E-03 -0.228022130760E-03 -0.246025099975E-03 -0.265435939396E-03
 -0.286362995336E-03 -0.308922746503E-03 -0.333240391410E-03 -0.359450475705E-03 -0.387697561862E-03
 -0.418136943799E-03 -0.450935409087E-03 -0.486272051581E-03 -0.524339137390E-03 -0.565343027243E-03
 -0.609505158447E-03 -0.657063089741E-03 -0.708271612484E-03 -0.763403931732E-03 -0.822752920890E-03
 -0.886632453721E-03 -0.955378817621E-03 -0.102935221214E-02 -0.110893833687E-02 -0.119455007282E-02
 -0.128662926156E-02 -0.138564858633E-02 -0.149211355957E-02 -0.160656462098E-02 -0.172957935055E-02
 -0.186177480073E-02 -0.200380995197E-02 -0.215638829554E-02 -0.232026054767E-02 -0.249622749848E-02
 -0.268514299935E-02 -0.288791709159E-02 -0.310551927931E-02 -0.333898194861E-02 -0.358940393489E-02
 -0.385795423949E-02 -0.414587589592E-02 -0.445448998546E-02 -0.478519980083E-02 -0.513949515558E-02
 -0.551895683591E-02 -0.592526119013E-02 -0.636018484970E-02 -0.682560957426E-02 -0.732352721120E-02
 -0.785604475865E-02 -0.842538951847E-02 -0.903391432395E-02 -0.968410282412E-02 -0.103785748044E-01
 -0.111200915200E-01 -0.119115610163E-01 -0.127560434067E-01 -0.136567560749E-01 -0.146170787661E-01
 -0.156405585271E-01 -0.167309144526E-01 -0.178920421886E-01 -0.191280181444E-01 -0.204431033560E-01
 -0.218417469415E-01 -0.233285890850E-01 -0.249084634789E-01 -0.265863991475E-01 -0.283676215692E-01
 -0.302575530038E-01 -0.322618119170E-01 -0.343862113845E-01 -0.366367563365E-01 -0.390196394899E-01
 -0.415412357971E-01 -0.442080952306E-01 -0.470269337193E-01 -0.500046220597E-01 -0.531481726460E-01
 -0.564647238913E-01 -0.599615222513E-01 -0.636459017989E-01 -0.675252613320E-01 -0.716070390216E-01
 -0.758986846174E-01 -0.804076292186E-01 -0.851412525867E-01 -0.901068479372E-01 -0.953115840940E-01
 -0.100762464865E+00 -0.106466285489E+00 -0.112429586022E+00 -0.118658601603E+00 -0.125159209549E+00
 -0.131936873324E+00 -0.138996583434E+00 -0.146342795335E+00 -0.153979364488E+00 -0.161909478689E+00
 -0.170135587886E+00 -0.178659331699E+00 -0.187481464950E+00 -0.196601781550E+00 -0.206019037170E+00
 -0.215730871194E+00 -0.225733728522E+00 -0.236022781891E+00 -0.246591855422E+00 -0.257433350201E+00
 -0.268538172784E+00 -0.279895667542E+00 -0.291493553837E+00 -0.303317869056E+00 -0.315352918558E+00
 -0.327581233567E+00 -0.339983538094E+00 -0.352538725928E+00 -0.365223848809E+00 -0.378014116898E+00
 -0.390882912868E+00 -0.403801821044E+00 -0.416740673333E+00 -0.429667613777E+00 -0.442549183484E+00
 -0.455350426837E+00 -0.468035017852E+00 -0.480565401794E+00 -0.492902941317E+00 -0.505008049593E+00
 -0.516840287098E+00 -0.528358398829E+00 -0.539520279067E+00 -0.550282874344E+00 -0.560602070407E+00
 -0.570432643207E+00 -0.579728368476E+00 -0.588442354106E+00 -0.596527580858E+00 -0.603937549171E+00
 -0.610626895496E+00 -0.616551884088E+00 -0.621670757012E+00 -0.625943979660E+00 -0.629334431437E+00
 -0.631807577002E+00 -0.633331632945E+00 -0.633877728719E+00 -0.633420052488E+00 -0.631935969443E+00
 -0.629406102087E+00 -0.625814365034E+00 -0.621147951307E+00 -0.615397270391E+00 -0.608555841009E+00
 -0.600620143414E+00 -0.591589436451E+00 -0.581465545722E+00 -0.570252628311E+00 -0.557956920321E+00
 -0.544586472224E+00 -0.530150877357E+00 -0.514660997963E+00 -0.498128692660E+00 -0.480566548991E+00
 -0.461987623264E+00 -0.442405190372E+00 -0.421832504141E+00 -0.400282570111E+00 -0.377767929751E+00
 -0.354300457184E+00 -0.329891167269E+00 -0.304550034789E+00 -0.278285824521E+00 -0.251105931477E+00
 -0.223016232154E+00 -0.194020945992E+00 -0.164122508845E+00 -0.133321458747E+00 -0.101616334856E+00
 -0.690035904583E-01 -0.354775201822E-01 -0.103020145614E-02  0.343485500988E-01  0.706712113540E-01
  0.107952567501E+00  0.146209710210E+00  0.185462012597E+00  0.225731072461E+00  0.267040612862E+00
  0.309416328505E+00  0.352885669283E+00  0.397477558340E+00  0.443222051725E+00  0.490149956459E+00
  0.538292432309E+00  0.587680604605E+00  0.638345213725E+00  0.690316317132E+00  0.743623050912E+00
  0.798293447379E+00  0.854354292845E+00  0.911831018798E+00  0.970747650185E+00  0.103112665810E+01
  0.109298892101E+01  0.115635360600E+01  0.122123806708E+01  0.128765771986E+01  0.135562590247E+01
  0.142515371296E+01  0.149624983200E+01  0.156892031821E+01  0.164316835967E+01  0.171899399556E+01
  0.000000000000E+00  0.000000000000E+00  0.000000000000E+00  0.000000000000E+00  0.000000000000E+00
  0.000000000000E+00  0.000000000000E+00  0.000000000000E+00  0.000000000000E+00  0.000000000000E+00
  0.000000000000E+00  0.000000000000E+00  0.000000000000E+00  0.000000000000E+00  0.000000000000E+00
  0.000000000000E+00  0.000000000000E+00  0.000000000000E+00  0.000000000000E+00  0.000000000000E+00
  0.000000000000E+00  0.000000000000E+00  0.000000000000E+00  0.000000000000E+00  0.000000000000E+00
  0.000000000000E+00  0.000000000000E+00  0.000000000000E+00  0.000000000000E+00  0.000000000000E+00
  0.000000000000E+00  0.000000000000E+00  0.000000000000E+00  0.000000000000E+00  0.000000000000E+00
  0.000000000000E+00  0.000000000000E+00  0.000000000000E+00  0.000000000000E+00  0.000000000000E+00
  0.000000000000E+00  0.000000000000E+00  0.000000000000E+00  0.000000000000E+00  0.000000000000E+00
 End of Dataset
  PAW_PBE N 08Apr2002                    
   5.00000000000000     
 parameters from PSCTR are:
   VRHFIN =N: s2p3
   LEXCH  = PE
   EATOM  =   264.5486 eV,   19.4438 Ry

   TITEL  = PAW_PBE N 08Apr2002
   LULTRA =        F    use ultrasoft PP ?
   IUNSCR =        1    unscreen: 0-lin 1-nonlin 2-no
   RPACOR =    1.200    partial core radius
   POMASS =   14.001; ZVAL   =    5.000    mass and valenz
   RCORE  =    1.500    outmost cutoff radius
   RWIGS  =    1.400; RWIGS  =    0.741    wigner-seitz radius (au A)
   ENMAX  =  400.000; ENMIN  =  300.000 eV
   ICORE  =        2    local potential
   LCOR   =        T    correct aug charges
   LPAW   =        T    paw PP
   EAUG   =  627.112
   DEXC   =    0.000
   RMAX   =    1.529    core radius for proj-oper
   RAUG   =    1.300    factor for augmentation sphere
   RDEP   =    1.514    radius for radial grids
   RDEPT  =    1.338    core radius for aug-charge
 
   Atomic configuration
    4 entries
     n  l   j            E        occ.
     1  0  0.50      -384.7179   2.0000
     2  0  0.50       -18.5828   2.0000
     2  1  0.50        -7.0898   3.0000
     3  2  1.50        -6.8029   0.0000
   Description
     l       E           TYP  RCUT    TYP  RCUT
     0    -18.5828119     23  1.200
     0    -13.5018863     23  1.200
     1     -7.0897853     23  1.500
     1      9.5240782     23  1.500
     2     -6.8029130      7  1.500
   Error from kinetic energy argument (eV)
   NDATA  =      100
   STEP   =   20.000   1.050
  106.      104.      102.      99.8      98.5      95.8      93.0      91.6
  88.9      86.1      84.8      82.0      79.3      76.6      73.9      71.2
  68.6      66.1      63.5      59.9      57.5      55.1      51.7      49.5
  47.4      44.3      41.4      39.5      36.8      34.2      31.7      29.4
  27.2      25.1      23.2      21.4      19.1      17.5      15.6      14.2
  12.6      11.1      9.72      8.50      7.41      6.43      5.55      4.60
  3.93      3.21      2.60      2.18      1.74      1.37      1.02     0.784
 0.597     0.422     0.293     0.199     0.133     0.872E-01 0.567E-01 0.347E-01
 0.238E-01 0.169E-01 0.137E-01 0.123E-01 0.116E-01 0.109E-01 0.100E-01 0.875E-02
 0.733E-02 0.589E-02 0.445E-02 0.343E-02 0.259E-02 0.207E-02 0.177E-02 0.163E-02
 0.153E-02 0.142E-02 0.127E-02 0.106E-02 0.841E-03 0.647E-03 0.505E-03 0.416E-03
 0.381E-03 0.372E-03 0.362E-03 0.337E-03 0.285E-03 0.227E-03 0.173E-03 0.137E-03
 0.121E-03 0.118E-03 0.117E-03 0.109E-03
END of PSCTR-controll parameters
 local part
   124.721915246209     
  0.21549196E+02  0.21549510E+02  0.21545877E+02  0.21539823E+02  0.21531352E+02
  0.21520464E+02  0.21507162E+02  0.21491448E+02  0.21473322E+02  0.21452781E+02
  0.21429822E+02  0.21404440E+02  0.21376626E+02  0.21346368E+02  0.21313655E+02
  0.21278469E+02  0.21240793E+02  0.21200607E+02  0.21157886E+02  0.21112606E+02
  0.21064737E+02  0.21014249E+02  0.20961106E+02  0.20905269E+02  0.20846697E+02
  0.20785343E+02  0.20721157E+02  0.20654086E+02  0.20584070E+02  0.20511050E+02
  0.20434959E+02  0.20355728E+02  0.20273287E+02  0.20187561E+02  0.20098473E+02
  0.20005943E+02  0.19909890E+02  0.19810232E+02  0.19706883E+02  0.19599760E+02
  0.19488778E+02  0.19373852E+02  0.19254900E+02  0.19131839E+02  0.19004592E+02
  0.18873081E+02  0.18737236E+02  0.18596989E+02  0.18452277E+02  0.18303046E+02
  0.18149244E+02  0.17990831E+02  0.17827772E+02  0.17660042E+02  0.17487626E+02
  0.17310517E+02  0.17128722E+02  0.16942256E+02  0.16751148E+02  0.16555439E+02
  0.16355183E+02  0.16150446E+02  0.15941309E+02  0.15727865E+02  0.15510223E+02
  0.15288505E+02  0.15062847E+02  0.14833399E+02  0.14600326E+02  0.14363805E+02
  0.14124029E+02  0.13881202E+02  0.13635543E+02  0.13387282E+02  0.13136662E+02
  0.12883936E+02  0.12629367E+02  0.12373231E+02  0.12115810E+02  0.11857394E+02
  0.11598282E+02  0.11338778E+02  0.11079191E+02  0.10819836E+02  0.10561026E+02
  0.10303082E+02  0.10046322E+02  0.97910627E+01  0.95376214E+01  0.92863112E+01
  0.90374410E+01  0.87913144E+01  0.85482283E+01  0.83084719E+01  0.80723256E+01
  0.78400598E+01  0.76119339E+01  0.73881952E+01  0.71690781E+01  0.69548033E+01
  0.67455764E+01  0.65415880E+01  0.63430123E+01  0.61500068E+01  0.59627116E+01
  0.57812492E+01  0.56057239E+01  0.54362218E+01  0.52728102E+01  0.51155379E+01
  0.49644350E+01  0.48195130E+01  0.46807651E+01  0.45481663E+01  0.44216736E+01
  0.43012270E+01  0.41867491E+01  0.40781468E+01  0.39753109E+01  0.38781174E+01
  0.37864285E+01  0.37000928E+01  0.36189467E+01  0.35428153E+01  0.34715131E+01
  0.34048455E+01  0.33426096E+01  0.32845952E+01  0.32305861E+01  0.31803611E+01
  0.31336953E+01  0.30903610E+01  0.30501290E+01  0.30127696E+01  0.29780538E+01
  0.29457542E+01  0.29156463E+01  0.28875091E+01  0.28611264E+01  0.28362876E+01
  0.28127883E+01  0.27904315E+01  0.27690281E+01  0.27483975E+01  0.27283685E+01
  0.27087795E+01  0.26894792E+01  0.26703270E+01  0.26511931E+01  0.26319591E+01
  0.26125178E+01  0.25927736E+01  0.25726425E+01  0.25520518E+01  0.25309405E+01
  0.25092584E+01  0.24869669E+01  0.24640375E+01  0.24404525E+01  0.24162039E+01
  0.23912936E+01  0.23657321E+01  0.23395387E+01  0.23127404E+01  0.22853718E+01
  0.22574739E+01  0.22290939E+01  0.22002844E+01  0.21711024E+01  0.21416093E+01
  0.21118695E+01  0.20819501E+01  0.20519201E+01  0.20218499E+01  0.19918103E+01
  0.19618721E+01  0.19321057E+01  0.19025800E+01  0.18733621E+01  0.18445170E+01
  0.18161068E+01  0.17881902E+01  0.17608225E+01  0.17340549E+01  0.17079343E+01
  0.16825029E+01  0.16577982E+01  0.16338527E+01  0.16106936E+01  0.15883431E+01
  0.15668181E+01  0.15461299E+01  0.15262850E+01  0.15072844E+01  0.14891243E+01
  0.14717960E+01  0.14552860E+01  0.14395763E+01  0.14246451E+01  0.14104662E+01
  0.13970101E+01  0.13842439E+01  0.13721317E+01  0.13606353E+01  0.13497140E+01
  0.13393253E+01  0.13294254E+01  0.13199693E+01  0.13109113E+01  0.13022055E+01
  0.12938059E+01  0.12856670E+01  0.12777441E+01  0.12699934E+01  0.12623726E+01
  0.12548412E+01  0.12473605E+01  0.12398940E+01  0.12324076E+01  0.12248698E+01
  0.12172520E+01  0.12095283E+01  0.12016760E+01  0.11936754E+01  0.11855101E+01
  0.11771668E+01  0.11686353E+01  0.11599087E+01  0.11509832E+01  0.11418579E+01
  0.11325351E+01  0.11230196E+01  0.11133191E+01  0.11034437E+01  0.10934058E+01
  0.10832201E+01  0.10729030E+01  0.10624728E+01  0.10519493E+01  0.10413534E+01
  0.10307071E+01  0.10200333E+01  0.10093552E+01  0.99869651E+00  0.98808098E+00
  0.97753216E+00  0.96707322E+00  0.95672678E+00  0.94651466E+00  0.93645771E+00
  0.92657565E+00  0.91688689E+00  0.90740839E+00  0.89815553E+00  0.88914200E+00
  0.88037974E+00  0.87187881E+00  0.86364738E+00  0.85569167E+00  0.84801593E+00
  0.84062247E+00  0.83351165E+00  0.82668193E+00  0.82012988E+00  0.81385033E+00
  0.80783637E+00  0.80207948E+00  0.79656962E+00  0.79129539E+00  0.78624409E+00
  0.78140191E+00  0.77675405E+00  0.77228489E+00  0.76797813E+00  0.76381692E+00
  0.75978406E+00  0.75586217E+00  0.75203377E+00  0.74828151E+00  0.74458827E+00
  0.74093734E+00  0.73731251E+00  0.73369825E+00  0.73007979E+00  0.72644325E+00
  0.72277573E+00  0.71906543E+00  0.71530168E+00  0.71147504E+00  0.70757734E+00
  0.70360173E+00  0.69954269E+00  0.69539608E+00  0.69115908E+00  0.68683024E+00
  0.68240944E+00  0.67789785E+00  0.67329786E+00  0.66861310E+00  0.66384831E+00
  0.65900927E+00  0.65410276E+00  0.64913644E+00  0.64411876E+00  0.63905887E+00
  0.63396649E+00  0.62885183E+00  0.62372547E+00  0.61859825E+00  0.61348116E+00
  0.60838522E+00  0.60332139E+00  0.59830045E+00  0.59333293E+00  0.58842894E+00
  0.58359819E+00  0.57884980E+00  0.57419227E+00  0.56963341E+00  0.56518028E+00
  0.56083909E+00  0.55661523E+00  0.55251316E+00  0.54853644E+00  0.54468765E+00
  0.54096845E+00  0.53737954E+00  0.53392065E+00  0.53059060E+00  0.52738730E+00
  0.52430780E+00  0.52134829E+00  0.51850421E+00  0.51577024E+00  0.51314041E+00
  0.51060813E+00  0.50816629E+00  0.50580732E+00  0.50352326E+00  0.50130584E+00
  0.49914657E+00  0.49703681E+00  0.49496788E+00  0.49293108E+00  0.49091783E+00
  0.48891970E+00  0.48692853E+00  0.48493643E+00  0.48293593E+00  0.48091998E+00
  0.47888203E+00  0.47681607E+00  0.47471669E+00  0.47257911E+00  0.47039921E+00
  0.46817353E+00  0.46589936E+00  0.46357465E+00  0.46119811E+00  0.45876914E+00
  0.45628787E+00  0.45375510E+00  0.45117230E+00  0.44854160E+00  0.44586574E+00
  0.44314801E+00  0.44039225E+00  0.43760278E+00  0.43478435E+00  0.43194207E+00
  0.42908140E+00  0.42620803E+00  0.42332788E+00  0.42044698E+00  0.41757148E+00
  0.41470750E+00  0.41186117E+00  0.40903848E+00  0.40624529E+00  0.40348724E+00
  0.40076969E+00  0.39809773E+00  0.39547604E+00  0.39290896E+00  0.39040035E+00
  0.38795364E+00  0.38557174E+00  0.38325707E+00  0.38101152E+00  0.37883643E+00
  0.37673261E+00  0.37470032E+00  0.37273927E+00  0.37084866E+00  0.36902715E+00
  0.36727292E+00  0.36558366E+00  0.36395662E+00  0.36238865E+00  0.36087620E+00
  0.35941538E+00  0.35800201E+00  0.35663164E+00  0.35529962E+00  0.35400112E+00
  0.35273121E+00  0.35148487E+00  0.35025705E+00  0.34904273E+00  0.34783696E+00
  0.34663489E+00  0.34543184E+00  0.34422332E+00  0.34300507E+00  0.34177309E+00
  0.34052373E+00  0.33925361E+00  0.33795976E+00  0.33663956E+00  0.33529081E+00
  0.33391170E+00  0.33250085E+00  0.33105733E+00  0.32958061E+00  0.32807059E+00
  0.32652762E+00  0.32495244E+00  0.32334617E+00  0.32171036E+00  0.32004688E+00
  0.31835794E+00  0.31664608E+00  0.31491409E+00  0.31316504E+00  0.31140218E+00
  0.30962897E+00  0.30784898E+00  0.30606593E+00  0.30428356E+00  0.30250568E+00
  0.30073607E+00  0.29897849E+00  0.29723660E+00  0.29551395E+00  0.29381396E+00
  0.29213987E+00  0.29049469E+00  0.28888121E+00  0.28730197E+00  0.28575923E+00
  0.28425494E+00  0.28279075E+00  0.28136797E+00  0.27998761E+00  0.27865030E+00
  0.27735636E+00  0.27610576E+00  0.27489813E+00  0.27373277E+00  0.27260868E+00
  0.27152453E+00  0.27047872E+00  0.26946937E+00  0.26849435E+00  0.26755131E+00
  0.26663769E+00  0.26575076E+00  0.26488765E+00  0.26404537E+00  0.26322084E+00
  0.26241090E+00  0.26161239E+00  0.26082215E+00  0.26003702E+00  0.25925394E+00
  0.25846991E+00  0.25768205E+00  0.25688763E+00  0.25608408E+00  0.25526901E+00
  0.25444025E+00  0.25359583E+00  0.25273404E+00  0.25185342E+00  0.25095277E+00
  0.25003114E+00  0.24908787E+00  0.24812258E+00  0.24713516E+00  0.24612577E+00
  0.24509485E+00  0.24404308E+00  0.24297141E+00  0.24188101E+00  0.24077328E+00
  0.23964983E+00  0.23851244E+00  0.23736307E+00  0.23620382E+00  0.23503692E+00
  0.23386467E+00  0.23268949E+00  0.23151382E+00  0.23034013E+00  0.22917090E+00
  0.22800859E+00  0.22685561E+00  0.22571430E+00  0.22458690E+00  0.22347556E+00
  0.22238228E+00  0.22130892E+00  0.22025717E+00  0.21922853E+00  0.21822433E+00
  0.21724567E+00  0.21629347E+00  0.21536840E+00  0.21447092E+00  0.21360127E+00
  0.21275946E+00  0.21194529E+00  0.21115831E+00  0.21039790E+00  0.20966320E+00
  0.20895318E+00  0.20826661E+00  0.20760212E+00  0.20695815E+00  0.20633305E+00
  0.20572502E+00  0.20513216E+00  0.20455251E+00  0.20398403E+00  0.20342464E+00
  0.20287225E+00  0.20232476E+00  0.20178009E+00  0.20123621E+00  0.20069112E+00
  0.20014293E+00  0.19958981E+00  0.19903007E+00  0.19846212E+00  0.19788453E+00
  0.19729600E+00  0.19669539E+00  0.19608175E+00  0.19545429E+00  0.19481239E+00
  0.19415564E+00  0.19348380E+00  0.19279682E+00  0.19209483E+00  0.19137814E+00
  0.19064726E+00  0.18990284E+00  0.18914569E+00  0.18837679E+00  0.18759724E+00
  0.18680828E+00  0.18601124E+00  0.18520757E+00  0.18439880E+00  0.18358651E+00
  0.18277235E+00  0.18195798E+00  0.18114509E+00  0.18033539E+00  0.17953052E+00
  0.17873215E+00  0.17794185E+00  0.17716116E+00  0.17639151E+00  0.17563427E+00
  0.17489068E+00  0.17416188E+00  0.17344888E+00  0.17275254E+00  0.17207361E+00
  0.17141267E+00  0.17077015E+00  0.17014633E+00  0.16954133E+00  0.16895513E+00
  0.16838754E+00  0.16783823E+00  0.16730670E+00  0.16679235E+00  0.16629440E+00
  0.16581200E+00  0.16534413E+00  0.16488971E+00  0.16444755E+00  0.16401638E+00
  0.16359486E+00  0.16318161E+00  0.16277521E+00  0.16237419E+00  0.16197710E+00
  0.16158247E+00  0.16118887E+00  0.16079487E+00  0.16039912E+00  0.16000029E+00
  0.15959716E+00  0.15918855E+00  0.15877340E+00  0.15835073E+00  0.15791969E+00
  0.15747953E+00  0.15702963E+00  0.15656948E+00  0.15609871E+00  0.15561710E+00
  0.15512452E+00  0.15462102E+00  0.15410674E+00  0.15358198E+00  0.15304714E+00
  0.15250275E+00  0.15194946E+00  0.15138801E+00  0.15081923E+00  0.15024406E+00
  0.14966350E+00  0.14907862E+00  0.14849053E+00  0.14790042E+00  0.14730947E+00
  0.14671891E+00  0.14612995E+00  0.14554382E+00  0.14496172E+00  0.14438483E+00
  0.14381428E+00  0.14325114E+00  0.14269644E+00  0.14215114E+00  0.14161609E+00
  0.14109208E+00  0.14057980E+00  0.14007984E+00  0.13959267E+00  0.13911866E+00
  0.13865809E+00  0.13821109E+00  0.13777770E+00  0.13735783E+00  0.13695129E+00
  0.13655778E+00  0.13617688E+00  0.13580809E+00  0.13545080E+00  0.13510431E+00
  0.13476786E+00  0.13444058E+00  0.13412157E+00  0.13380986E+00  0.13350444E+00
  0.13320427E+00  0.13290826E+00  0.13261534E+00  0.13232441E+00  0.13203440E+00
  0.13174423E+00  0.13145287E+00  0.13115932E+00  0.13086263E+00  0.13056190E+00
  0.13025629E+00  0.12994505E+00  0.12962749E+00  0.12930301E+00  0.12897109E+00
  0.12863133E+00  0.12828340E+00  0.12792707E+00  0.12756222E+00  0.12718884E+00
  0.12680698E+00  0.12641684E+00  0.12601868E+00  0.12561287E+00  0.12519984E+00
  0.12478014E+00  0.12435438E+00  0.12392323E+00  0.12348743E+00  0.12304779E+00
  0.12260514E+00  0.12216036E+00  0.12171437E+00  0.12126810E+00  0.12082247E+00
  0.12037845E+00  0.11993695E+00  0.11949890E+00  0.11906519E+00  0.11863667E+00
  0.11821417E+00  0.11779844E+00  0.11739019E+00  0.11699005E+00  0.11659862E+00
  0.11621637E+00  0.11584373E+00  0.11548104E+00  0.11512855E+00  0.11478641E+00
  0.11445471E+00  0.11413343E+00  0.11382247E+00  0.11352164E+00  0.11323067E+00
  0.11294921E+00  0.11267683E+00  0.11241303E+00  0.11215723E+00  0.11190882E+00
  0.11166711E+00  0.11143137E+00  0.11120082E+00  0.11097468E+00  0.11075210E+00
  0.11053225E+00  0.11031428E+00  0.11009733E+00  0.10988057E+00  0.10966316E+00
  0.10944430E+00  0.10922323E+00  0.10899920E+00  0.10877154E+00  0.10853962E+00
  0.10830285E+00  0.10806072E+00  0.10781278E+00  0.10755867E+00  0.10729807E+00
  0.10703076E+00  0.10675660E+00  0.10647551E+00  0.10618751E+00  0.10589267E+00
  0.10559117E+00  0.10528325E+00  0.10496920E+00  0.10464941E+00  0.10432433E+00
  0.10399444E+00  0.10366031E+00  0.10332254E+00  0.10298176E+00  0.10263866E+00
  0.10229394E+00  0.10194832E+00  0.10160256E+00  0.10125738E+00  0.10091355E+00
  0.10057179E+00  0.10023284E+00  0.99897386E-01  0.99566109E-01  0.99239644E-01
  0.98918585E-01  0.98603483E-01  0.98294834E-01  0.97993081E-01  0.97698603E-01
  0.97411719E-01  0.97132682E-01  0.96861676E-01  0.96598816E-01  0.96344147E-01
  0.96097646E-01  0.95859217E-01  0.95628700E-01  0.95405865E-01  0.95190423E-01
  0.94982020E-01  0.94780250E-01  0.94584652E-01  0.94394721E-01  0.94209906E-01
  0.94029624E-01  0.93853260E-01  0.93680172E-01  0.93509703E-01  0.93341183E-01
  0.93173937E-01  0.93007291E-01  0.92840577E-01  0.92673145E-01  0.92504360E-01
  0.92333619E-01  0.92160346E-01  0.91984004E-01  0.91804100E-01  0.91620184E-01
  0.91431858E-01  0.91238779E-01  0.91040657E-01  0.90837265E-01  0.90628433E-01
  0.90414056E-01  0.90194087E-01  0.89968547E-01  0.89737514E-01  0.89501128E-01
  0.89259590E-01  0.89013154E-01  0.88762128E-01  0.88506871E-01  0.88247788E-01
  0.87985324E-01  0.87719963E-01  0.87452219E-01  0.87182633E-01  0.86911769E-01
  0.86640206E-01  0.86368532E-01  0.86097341E-01  0.85827223E-01  0.85558764E-01
  0.85292535E-01  0.85029089E-01  0.84768954E-01  0.84512631E-01  0.84260587E-01
  0.84013250E-01  0.83771009E-01  0.83534205E-01  0.83303133E-01  0.83078037E-01
  0.82859107E-01  0.82646482E-01  0.82440243E-01  0.82240417E-01  0.82046976E-01
  0.81859836E-01  0.81678859E-01  0.81503856E-01  0.81334589E-01  0.81170770E-01
  0.81012071E-01  0.80858120E-01  0.80708509E-01  0.80562801E-01  0.80420526E-01
  0.80281195E-01  0.80144298E-01  0.80009312E-01  0.79875708E-01  0.79742950E-01
  0.79610506E-01  0.79477852E-01  0.79344475E-01  0.79209879E-01  0.79073590E-01
  0.78935161E-01  0.78794175E-01  0.78650247E-01  0.78503034E-01  0.78352230E-01
  0.78197572E-01  0.78038845E-01  0.77875880E-01  0.77708554E-01  0.77536796E-01
  0.77360584E-01  0.77179945E-01  0.76994955E-01  0.76805738E-01  0.76612463E-01
  0.76415345E-01  0.76214639E-01  0.76010641E-01  0.75803679E-01  0.75594118E-01
  0.75382347E-01  0.75168781E-01  0.74953856E-01  0.74738022E-01  0.74521742E-01
  0.74305485E-01  0.74089722E-01  0.73874921E-01  0.73661545E-01  0.73450043E-01
  0.73240848E-01  0.73034375E-01  0.72831012E-01  0.72631123E-01  0.72435037E-01
  0.72243052E-01  0.72055427E-01  0.71872383E-01  0.71694101E-01  0.71520717E-01
  0.71352328E-01  0.71188982E-01  0.71030685E-01  0.70877400E-01  0.70729044E-01
  0.70585492E-01  0.70446580E-01  0.70312102E-01  0.70181818E-01  0.70055450E-01
  0.69932693E-01  0.69813211E-01  0.69696644E-01  0.69582612E-01  0.69470716E-01
  0.69360544E-01  0.69251677E-01  0.69143687E-01  0.69036150E-01  0.68928639E-01
  0.68820741E-01  0.68712048E-01  0.68602172E-01  0.68490742E-01  0.68377409E-01
  0.68261851E-01  0.68143773E-01  0.68022912E-01  0.67899039E-01  0.67771960E-01
  0.67641517E-01  0.67507593E-01  0.67370109E-01  0.67229024E-01  0.67084340E-01
  0.66936096E-01  0.66784373E-01  0.66629288E-01  0.66470994E-01  0.66309680E-01
  0.66145569E-01  0.65978913E-01  0.65809990E-01  0.65639105E-01  0.65466584E-01
  0.65292771E-01  0.65118024E-01  0.64942714E-01  0.64767218E-01  0.64591918E-01
  0.64417194E-01  0.64243424E-01  0.64070980E-01  0.63900218E-01  0.63731486E-01
  0.63565109E-01  0.63401392E-01  0.63240619E-01  0.63083044E-01  0.62928896E-01
  0.62778368E-01  0.62631627E-01  0.62488800E-01  0.62349984E-01  0.62215236E-01
  0.62084581E-01  0.61958004E-01  0.61835457E-01  0.61716856E-01  0.61602082E-01
  0.61490983E-01  0.61383377E-01  0.61279052E-01  0.61177770E-01  0.61079268E-01
  0.60983259E-01  0.60889442E-01  0.60797495E-01  0.60707087E-01  0.60617877E-01
  0.60529516E-01  0.60441654E-01  0.60353942E-01  0.60266034E-01  0.60177592E-01
  0.60088289E-01  0.59997812E-01  0.59905865E-01  0.59812171E-01  0.59716476E-01
  0.59618550E-01  0.59518191E-01  0.59415223E-01  0.59309501E-01  0.59200912E-01
  0.59089375E-01  0.58974840E-01  0.58857292E-01  0.58736747E-01  0.58613255E-01
 gradient corrections used for XC
           5
 core charge-density (partial)
  0.11917933E-01  0.11914190E-01  0.11902970E-01  0.11884292E-01  0.11858186E-01
  0.11824698E-01  0.11783885E-01  0.11735816E-01  0.11680574E-01  0.11618251E-01
  0.11548953E-01  0.11472797E-01  0.11389911E-01  0.11300434E-01  0.11204515E-01
  0.11102313E-01  0.10993997E-01  0.10879746E-01  0.10759747E-01  0.10634194E-01
  0.10503291E-01  0.10367248E-01  0.10226283E-01  0.10080617E-01  0.99304815E-02
  0.97761092E-02  0.96177389E-02  0.94556133E-02  0.92899783E-02  0.91210826E-02
  0.89491771E-02  0.87745147E-02  0.85973488E-02  0.84179337E-02  0.82365236E-02
  0.80533720E-02  0.78687312E-02  0.76828518E-02  0.74959823E-02  0.73083685E-02
  0.71202527E-02  0.69318737E-02  0.67434663E-02  0.65552605E-02  0.63674812E-02
  0.61803481E-02  0.59940751E-02  0.58088699E-02  0.56249337E-02  0.54424610E-02
  0.52616393E-02  0.50826486E-02  0.49056616E-02  0.47308431E-02  0.45583500E-02
  0.43883310E-02  0.42209268E-02  0.40562696E-02  0.38944833E-02  0.37356833E-02
  0.35799763E-02  0.34274608E-02  0.32782265E-02  0.31323549E-02  0.29899188E-02
  0.28509828E-02  0.27156033E-02  0.25838285E-02  0.24556984E-02  0.23312456E-02
  0.22104946E-02  0.20934625E-02  0.19801591E-02  0.18705873E-02  0.17647428E-02
  0.16626148E-02  0.15641862E-02  0.14694336E-02  0.13783277E-02  0.12908338E-02
  0.12069116E-02  0.11265159E-02  0.10495966E-02  0.97609940E-03  0.90596547E-03
  0.83913222E-03  0.77553347E-03  0.71509966E-03  0.65775825E-03  0.60343392E-03
  0.55204892E-03  0.50352328E-03  0.45777518E-03  0.41472113E-03  0.37427628E-03
  0.33635469E-03  0.30086954E-03  0.26773341E-03  0.23685851E-03  0.20815688E-03
  0.18154066E-03  0.15692224E-03  0.13421451E-03  0.11333103E-03  0.94186206E-04
  0.76695469E-04  0.60775434E-04  0.46344051E-04  0.33320744E-04  0.21626540E-04
  0.11184191E-04  0.19182810E-05 -0.62446742E-05 -0.13376138E-04 -0.19545473E-04
 -0.24819873E-04 -0.29264304E-04 -0.32941451E-04 -0.35911678E-04 -0.38232994E-04
 -0.39961032E-04 -0.41149030E-04 -0.41847824E-04 -0.42105849E-04 -0.41969140E-04
 -0.41481355E-04 -0.40683785E-04 -0.39615389E-04 -0.38312819E-04 -0.36810461E-04
 -0.35140479E-04 -0.33332856E-04 -0.31415452E-04 -0.29414054E-04 -0.27352437E-04
 -0.25252427E-04 -0.23133961E-04 -0.21015160E-04 -0.18912392E-04 -0.16840348E-04
 -0.14812110E-04 -0.12839227E-04 -0.10931787E-04 -0.90984931E-05 -0.73467371E-05
 -0.56826745E-05 -0.41112984E-05 -0.26365136E-05 -0.12612092E-05  0.12669428E-07
  0.11840504E-05  0.22526656E-05  0.32189835E-05  0.40841431E-05  0.48498901E-05
  0.55185147E-05  0.60927920E-05  0.65759246E-05  0.69714867E-05  0.72833719E-05
  0.75157425E-05  0.76729816E-05  0.77596478E-05  0.77804323E-05  0.77401191E-05
  0.76435468E-05  0.74955741E-05  0.73010468E-05  0.70647684E-05  0.67914725E-05
  0.64857976E-05  0.61522648E-05  0.57952575E-05  0.54190034E-05  0.50275590E-05
  0.46247959E-05  0.42143892E-05  0.37998082E-05  0.33843085E-05  0.29709267E-05
  0.25624754E-05  0.21615417E-05  0.17704854E-05  0.13914398E-05  0.10263137E-05
  0.67679357E-06  0.34434865E-06  0.30235327E-07 -0.26449643E-06 -0.53899629E-06
 -0.79260589E-06 -0.10248505E-05 -0.12354302E-05 -0.14242106E-05 -0.15912129E-05
 -0.17366039E-05 -0.18606859E-05 -0.19638859E-05 -0.20467454E-05 -0.21099094E-05
 -0.21541162E-05 -0.21801865E-05 -0.21890136E-05 -0.21815528E-05 -0.21588118E-05
 -0.21218407E-05 -0.20717232E-05 -0.20095673E-05 -0.19364966E-05 -0.18536428E-05
 -0.17621372E-05 -0.16631039E-05 -0.15576529E-05 -0.14468739E-05 -0.13318300E-05
 -0.12135531E-05 -0.10930385E-05 -0.97124084E-06 -0.84907016E-06 -0.72738860E-06
 -0.60700752E-06 -0.48868512E-06 -0.37312449E-06 -0.26097215E-06 -0.15281701E-06
 -0.49189676E-07  0.49437758E-07  0.14265159E-06  0.23009602E-06  0.31147238E-06
  0.38653795E-06  0.45510460E-06  0.51703710E-06  0.57225122E-06  0.62071162E-06
  0.66242948E-06  0.69746010E-06  0.72590021E-06  0.74788526E-06  0.76358656E-06
  0.77320835E-06  0.77698487E-06  0.77517728E-06  0.76807067E-06  0.75597107E-06
  0.73920239E-06  0.71810348E-06  0.69302524E-06  0.66432777E-06  0.63237761E-06
  0.59754507E-06  0.56020169E-06  0.52071783E-06  0.47946027E-06  0.43679013E-06
  0.39306078E-06  0.34861594E-06  0.30378794E-06  0.25889618E-06  0.21424560E-06
  0.17012550E-06  0.12680835E-06  0.84548861E-07  0.43583154E-07  0.41281265E-08
 -0.33619068E-07 -0.69481375E-07 -0.10330206E-06 -0.13494479E-06 -0.16429359E-06
 -0.19125265E-06 -0.21574606E-06 -0.23771740E-06 -0.25712923E-06 -0.27396249E-06
 -0.28821583E-06 -0.29990480E-06 -0.30906105E-06 -0.31573143E-06 -0.31997699E-06
 -0.32187201E-06 -0.32150295E-06 -0.31896737E-06 -0.31437285E-06 -0.30783583E-06
 -0.29948054E-06 -0.28943786E-06 -0.27784421E-06 -0.26484043E-06 -0.25057070E-06
 -0.23518151E-06 -0.21882061E-06 -0.20163598E-06 -0.18377494E-06 -0.16538321E-06
 -0.14660402E-06 -0.12757736E-06 -0.10843916E-06 -0.89320608E-07 -0.70347520E-07
 -0.51639738E-07 -0.33310615E-07 -0.15466547E-07  0.17934261E-08  0.18377958E-07
  0.34203675E-07  0.49195390E-07  0.63286263E-07  0.76417895E-07  0.88540375E-07
  0.99612264E-07  0.10960053E-06  0.11848044E-06  0.12623538E-06  0.13285666E-06
  0.13834330E-06  0.14270165E-06  0.14594518E-06  0.14809405E-06  0.14917475E-06
  0.14921970E-06  0.14826682E-06  0.14635907E-06  0.14354400E-06  0.13987328E-06
  0.13540219E-06  0.13018920E-06  0.12429539E-06  0.11778404E-06  0.11072013E-06
  0.10316982E-06  0.95200070E-07  0.86878095E-07  0.78270993E-07  0.69445295E-07
  0.60466570E-07  0.51399041E-07  0.42305224E-07  0.33245595E-07  0.24278275E-07
  0.15458747E-07  0.68395931E-08 -0.15297337E-08 -0.96031156E-08 -0.17337946E-07
 -0.24695276E-07 -0.31639938E-07 -0.38140634E-07 -0.44170002E-07 -0.49704653E-07
 -0.54725187E-07 -0.59216172E-07 -0.63166113E-07 -0.66567387E-07 -0.69416162E-07
 -0.71712290E-07 -0.73459186E-07 -0.74663684E-07 -0.75335883E-07 -0.75488968E-07
 -0.75139025E-07 -0.74304844E-07 -0.73007711E-07 -0.71271185E-07 -0.69120877E-07
 -0.66584221E-07 -0.63690239E-07 -0.60469302E-07 -0.56952897E-07 -0.53173392E-07
 -0.49163798E-07 -0.44957539E-07 -0.40588233E-07 -0.36089464E-07 -0.31494577E-07
 -0.26836471E-07 -0.22147405E-07 -0.17458815E-07 -0.12801140E-07 -0.82036605E-08
 -0.36943515E-08  0.70025603E-09  0.49551964E-08  0.90471787E-08  0.12954682E-07
  0.16658035E-07  0.20139486E-07  0.23383254E-07  0.26375567E-07  0.29104686E-07
  0.31560923E-07  0.33736631E-07  0.35626195E-07  0.37226006E-07  0.38534416E-07
  0.39551700E-07  0.40279984E-07  0.40723185E-07  0.40886926E-07  0.40778451E-07
  0.40406533E-07  0.39781367E-07  0.38914470E-07  0.37818561E-07  0.36507453E-07
  0.34995926E-07  0.33299607E-07  0.31434850E-07  0.29418606E-07  0.27268299E-07
  0.25001706E-07  0.22636827E-07  0.20191774E-07  0.17684643E-07  0.15133407E-07
  0.12555805E-07  0.99692336E-08  0.73906486E-08  0.48364706E-08  0.23224961E-08
 -0.13618458E-09 -0.25252625E-08 -0.48312786E-08 -0.70416845E-08 -0.91448959E-08
 -0.11130339E-07 -0.12988489E-07 -0.14710901E-07 -0.16290231E-07 -0.17720254E-07
 -0.18995873E-07 -0.20113115E-07 -0.21069131E-07 -0.21862178E-07 -0.22491602E-07
 -0.22957812E-07 -0.23262246E-07 -0.23407337E-07 -0.23396467E-07 -0.23233922E-07
 -0.22924840E-07 -0.22475153E-07 -0.21891532E-07 -0.21181320E-07 -0.20352474E-07
 -0.19413489E-07 -0.18373340E-07 -0.17241403E-07 -0.16027393E-07 -0.14741288E-07
 -0.13393261E-07 -0.11993611E-07 -0.10552693E-07 -0.90808538E-08 -0.75883637E-08
 -0.60853555E-08 -0.45817638E-08 -0.30872671E-08 -0.16112337E-08 -0.16267042E-09
  0.12498247E-08  0.26181061E-08  0.39345207E-08  0.51919430E-08  0.63838069E-08
  0.75041322E-08  0.85475479E-08  0.95093101E-08  0.10385316E-07  0.11172113E-07
  0.11866905E-07  0.12467553E-07  0.12972569E-07  0.13381114E-07  0.13692984E-07
  0.13908595E-07  0.14028965E-07  0.14055693E-07  0.13990934E-07  0.13837373E-07
  0.13598190E-07  0.13277034E-07  0.12877984E-07  0.12405514E-07  0.11864454E-07
  0.11259953E-07  0.10597436E-07  0.98825636E-08  0.91211921E-08  0.83193297E-08
  0.74830962E-08  0.66186807E-08  0.57323017E-08  0.48301665E-08  0.39184326E-08
  0.30031700E-08  0.20903250E-08  0.11856857E-08  0.29484901E-09 -0.57680966E-09
 -0.14241653E-08 -0.22423694E-08 -0.30268743E-08 -0.37734545E-08 -0.44782255E-08
 -0.51376605E-08 -0.57486041E-08 -0.63082832E-08 -0.68143158E-08 -0.72647168E-08
 -0.76579008E-08 -0.79926832E-08 -0.82682778E-08 -0.84842932E-08 -0.86407251E-08
 -0.87379482E-08 -0.87767043E-08 -0.87580896E-08 -0.86835395E-08 -0.85548115E-08
 -0.83739669E-08 -0.81433507E-08 -0.78655703E-08 -0.75434731E-08 -0.71801231E-08
 -0.67787763E-08 -0.63428563E-08 -0.58759283E-08 -0.53816741E-08 -0.48638656E-08
 -0.43263393E-08 -0.37729706E-08 -0.32076485E-08 -0.26342505E-08 -0.20566190E-08
 -0.14785373E-08 -0.90370713E-09 -0.33572747E-09  0.22192615E-09  0.76592077E-09
  0.12930838E-08  0.18004194E-08  0.22851238E-08  0.27445982E-08  0.31764612E-08
  0.35785586E-08  0.39489722E-08  0.42860266E-08  0.45882948E-08  0.48546013E-08
  0.50840242E-08  0.52758957E-08  0.54298006E-08  0.55455733E-08  0.56232938E-08
  0.56632817E-08  0.56660890E-08  0.56324915E-08  0.55634796E-08  0.54602467E-08
  0.53241781E-08  0.51568375E-08  0.49599539E-08  0.47354068E-08  0.44852113E-08
  0.42115026E-08  0.39165197E-08  0.36025895E-08  0.32721100E-08  0.29275337E-08
  0.25713513E-08  0.22060746E-08  0.18342210E-08  0.14582968E-08  0.10807820E-08
  0.70411525E-09  0.33067925E-09 -0.37213174E-10 -0.39733207E-09 -0.74754278E-09
 -0.10858174E-08 -0.14102453E-08 -0.17190428E-08 -0.20105619E-08 -0.22832977E-08
 -0.25358951E-08 -0.27671541E-08 -0.29760345E-08 -0.31616587E-08 -0.33233145E-08
 -0.34604559E-08 -0.35727032E-08 -0.36598420E-08 -0.37218213E-08 -0.37587505E-08
 -0.37708954E-08 -0.37586737E-08 -0.37226488E-08 -0.36635236E-08 -0.35821335E-08
 -0.34794380E-08 -0.33565128E-08 -0.32145399E-08 -0.30547989E-08 -0.28786565E-08
 -0.26875561E-08 -0.24830076E-08 -0.22665762E-08 -0.20398717E-08 -0.18045371E-08
 -0.15622382E-08 -0.13146520E-08 -0.10634566E-08 -0.81031998E-09 -0.55688999E-09
 -0.30478439E-09 -0.55581151E-10  0.18919067E-09  0.42805962E-09  0.65962004E-09
  0.88253958E-09  0.10955662E-08  0.12975347E-08  0.14873718E-08  0.16641021E-08
  0.18268513E-08  0.19748506E-08  0.21074390E-08  0.22240658E-08  0.23242915E-08
  0.24077889E-08  0.24743429E-08  0.25238496E-08  0.25563148E-08  0.25718523E-08
  0.25706807E-08  0.25531201E-08  0.25195887E-08  0.24705973E-08  0.24067456E-08
  0.23287157E-08  0.22372669E-08  0.21332291E-08  0.20174964E-08  0.18910206E-08
  0.17548036E-08  0.16098903E-08  0.14573615E-08  0.12983261E-08  0.11339139E-08
  0.96526790E-09  0.79353678E-09  0.61986779E-09  0.44539943E-09  0.27125444E-09
  0.98533055E-10 -0.71693556E-10 -0.23838947E-09 -0.40055989E-09 -0.55725671E-09
 -0.70758357E-09 -0.85070062E-09 -0.98582874E-09 -0.11122534E-08 -0.12293279E-08
 -0.13364764E-08 -0.14331960E-08 -0.15190589E-08 -0.15937135E-08 -0.16568854E-08
 -0.17083777E-08 -0.17480708E-08 -0.17759219E-08 -0.17919637E-08 -0.17963032E-08
 -0.17891192E-08 -0.17706605E-08 -0.17412426E-08 -0.17012447E-08 -0.16511064E-08
 -0.15913234E-08 -0.15224439E-08 -0.14450639E-08 -0.13598227E-08 -0.12673982E-08
 -0.11685018E-08 -0.10638735E-08 -0.95427650E-09 -0.84049229E-09 -0.72331525E-09
 -0.60354743E-09 -0.48199337E-09 -0.35945503E-09 -0.23672675E-09 -0.11459040E-09
  0.61893363E-11  0.12486948E-09  0.24073307E-09  0.35309320E-09  0.46129685E-09
  0.56472843E-09  0.66281299E-09  0.75501915E-09  0.84086172E-09  0.91990396E-09
  0.99175948E-09  0.10560939E-08  0.11126259E-08  0.11611284E-08  0.12014286E-08
  0.12334087E-08  0.12570054E-08  0.12722093E-08  0.12790643E-08  0.12776662E-08
  0.12681615E-08  0.12507454E-08  0.12256597E-08  0.11931909E-08  0.11536671E-08
  0.11074557E-08  0.10549602E-08  0.99661717E-09  0.93289279E-09  0.86427965E-09
  0.79129305E-09  0.71446744E-09  0.63435274E-09  0.55151063E-09  0.46651078E-09
  0.37992719E-09  0.29233447E-09  0.20430421E-09  0.11640147E-09  0.29181271E-10
 -0.56814673E-10 -0.14106119E-09 -0.22305268E-09 -0.30230596E-09 -0.37836296E-09
 -0.45079320E-09 -0.51919604E-09 -0.58320275E-09 -0.64247825E-09 -0.69672278E-09
 -0.74567311E-09 -0.78910369E-09 -0.82682743E-09 -0.85869626E-09 -0.88460146E-09
 -0.90447370E-09 -0.91828283E-09 -0.92603749E-09 -0.92778440E-09 -0.92360749E-09
 -0.91362674E-09 -0.89799692E-09 -0.87690598E-09 -0.85057343E-09 -0.81924840E-09
 -0.78320761E-09 -0.74275325E-09 -0.69821059E-09 -0.64992565E-09 -0.59826266E-09
 -0.54360146E-09 -0.48633493E-09 -0.42686625E-09 -0.36560623E-09 -0.30297063E-09
 -0.23937740E-09 -0.17524409E-09 -0.11098517E-09 -0.47009517E-10  0.16282117E-10
  0.78499466E-10  0.13926506E-09  0.19821640E-09  0.25500802E-09  0.30931337E-09
  0.36082661E-09  0.40926421E-09  0.45436638E-09  0.49589836E-09  0.53365150E-09
  0.56744417E-09  0.59712252E-09  0.62256100E-09  0.64366272E-09  0.66035964E-09
  0.67261255E-09  0.68041088E-09  0.68377234E-09  0.68274238E-09  0.67739346E-09
  0.66782425E-09  0.65415853E-09  0.63654412E-09  0.61515151E-09  0.59017251E-09
  0.56181869E-09  0.53031976E-09  0.49592186E-09  0.45888576E-09  0.41948500E-09
  0.37800397E-09  0.33473600E-09  0.28998131E-09  0.24404511E-09  0.19723551E-09
  0.14986161E-09  0.10223152E-09  0.54650395E-10  0.74186355E-11 -0.39169997E-10
 -0.84830105E-10 -0.12928633E-09 -0.17227494E-09 -0.21354532E-09 -0.25286135E-09
 -0.29000269E-09 -0.32476593E-09 -0.35696563E-09 -0.38643520E-09 -0.41302772E-09
 -0.43661653E-09 -0.45709577E-09 -0.47438073E-09 -0.48840806E-09 -0.49913590E-09
 -0.50654381E-09 -0.51063257E-09 -0.51142390E-09 -0.50896004E-09 -0.50330312E-09
 -0.49453454E-09 -0.48275419E-09 -0.46807951E-09 -0.45064453E-09 -0.43059878E-09
 -0.40810616E-09 -0.38334364E-09 -0.35650002E-09 -0.32777455E-09 -0.29737552E-09
 -0.26551883E-09 -0.23242654E-09 -0.19832536E-09 -0.16344516E-09 -0.12801751E-09
 -0.92274148E-10 -0.56445571E-10 -0.20759567E-10  0.14560166E-10  0.49295373E-10
  0.83234536E-10  0.11617412E-09  0.14791972E-09  0.17828719E-09  0.20710363E-09
  0.23420833E-09  0.25945361E-09  0.28270556E-09  0.30384472E-09  0.32276658E-09
  0.33938209E-09  0.35361795E-09  0.36541691E-09  0.37473786E-09  0.38155588E-09
  0.38586219E-09  0.38766399E-09  0.38698415E-09  0.38386088E-09  0.37834730E-09
  0.37051087E-09  0.36043278E-09  0.34820724E-09  0.33394073E-09  0.31775117E-09
  0.29976699E-09  0.28012618E-09  0.25897534E-09  0.23646859E-09  0.21276652E-09
  0.18803509E-09  0.16244450E-09  0.13616809E-09  0.10938119E-09  0.82259986E-10
  0.54980400E-10  0.27716999E-10  0.64190703E-12 -0.26076246E-10 -0.52273337E-10
 -0.77790721E-10 -0.10247616E-09 -0.12618468E-09 -0.14877942E-09 -0.17013234E-09
 -0.19012494E-09 -0.20864889E-09 -0.22560654E-09 -0.24091140E-09 -0.25448856E-09
 -0.26627501E-09 -0.27621983E-09 -0.28428441E-09 -0.29044250E-09 -0.29468021E-09
 -0.29699594E-09 -0.29740026E-09 -0.29591561E-09 -0.29257607E-09 -0.28742698E-09
 -0.28052448E-09 -0.27193505E-09 -0.26173491E-09 -0.25000948E-09 -0.23685266E-09
 -0.22236618E-09 -0.20665879E-09 -0.18984558E-09 -0.17204709E-09 -0.15338851E-09
 -0.13399886E-09 -0.11401006E-09 -0.93556155E-10 -0.72772363E-10 -0.51794250E-10
 -0.30756866E-10 -0.97938965E-11  0.10963156E-10  0.31385773E-10  0.51349191E-10
  0.70733138E-10  0.89422531E-10  0.10730813E-09  0.12428718E-09  0.14026391E-09
  0.15515011E-09  0.16886558E-09  0.18133850E-09  0.19250579E-09  0.20231341E-09
  0.21071659E-09  0.21767995E-09  0.22317766E-09  0.22719344E-09  0.22972058E-09
  0.23076180E-09  0.23032920E-09  0.22844398E-09  0.22513625E-09  0.22044472E-09
  0.21441632E-09  0.20710583E-09  0.19857542E-09  0.18889420E-09  0.17813763E-09
  0.16638704E-09  0.15372902E-09  0.14025477E-09  0.12605954E-09  0.11124191E-09
  0.95903196E-10  0.80146715E-10  0.64077153E-10  0.47799875E-10  0.31420253E-10
  0.15043005E-10 -0.12284541E-11 -0.17292651E-10 -0.33050666E-10 -0.48406723E-10
 -0.63268755E-10 -0.77548940E-10 -0.91164196E-10 -0.10403665E-09 -0.11609406E-09
 -0.12727021E-09 -0.13750524E-09 -0.14674595E-09 -0.15494607E-09 -0.16206642E-09
 -0.16807515E-09 -0.17294775E-09 -0.17666720E-09 -0.17922396E-09 -0.18061591E-09
 -0.18084832E-09 -0.17993369E-09 -0.17789161E-09 -0.17474853E-09 -0.17053752E-09
 -0.16529801E-09 -0.15907540E-09 -0.15192078E-09 -0.14389046E-09 -0.13504564E-09
 kinetic energy density (partial)
  0.58247555E+01  0.58229316E+01  0.58174628E+01  0.58083586E+01  0.57956344E+01
  0.57793118E+01  0.57594187E+01  0.57359887E+01  0.57090616E+01  0.56786828E+01
  0.56449035E+01  0.56077804E+01  0.55673758E+01  0.55237571E+01  0.54769968E+01
  0.54271723E+01  0.53743658E+01  0.53186637E+01  0.52601570E+01  0.51989406E+01
  0.51351130E+01  0.50687767E+01  0.50000370E+01  0.49290025E+01  0.48557846E+01
  0.47804970E+01  0.47032558E+01  0.46241789E+01  0.45433860E+01  0.44609981E+01
  0.43771373E+01  0.42919264E+01  0.42054890E+01  0.41179488E+01  0.40294295E+01
  0.39400545E+01  0.38499466E+01  0.37592281E+01  0.36680198E+01  0.35764416E+01
  0.34846115E+01  0.33926459E+01  0.33006592E+01  0.32087636E+01  0.31170689E+01
  0.30256822E+01  0.29347077E+01  0.28442470E+01  0.27543983E+01  0.26652564E+01
  0.25769131E+01  0.24894563E+01  0.24029704E+01  0.23175360E+01  0.22332298E+01
  0.21501246E+01  0.20682894E+01  0.19877889E+01  0.19086837E+01  0.18310306E+01
  0.17548819E+01  0.16802860E+01  0.16072869E+01  0.15359248E+01  0.14662356E+01
  0.13982512E+01  0.13319994E+01  0.12675040E+01  0.12047852E+01  0.11438590E+01
  0.10847378E+01  0.10274304E+01  0.97194200E+00  0.91827420E+00  0.86642537E+00
  0.81639061E+00  0.76816187E+00  0.72172810E+00  0.67707538E+00  0.63418702E+00
  0.59304373E+00  0.55362372E+00  0.51590289E+00  0.47985489E+00  0.44545136E+00
  0.41266198E+00  0.38145466E+00  0.35179570E+00  0.32364986E+00  0.29698059E+00
  0.27175009E+00  0.24791949E+00  0.22544899E+00  0.20429795E+00  0.18442506E+00
  0.16578846E+00  0.14834585E+00  0.13205461E+00  0.11687192E+00  0.10275489E+00
  0.89660618E-01  0.77546358E-01  0.66369565E-01  0.56088015E-01  0.46659883E-01
  0.38043837E-01  0.30199107E-01  0.23085567E-01  0.16663797E-01  0.10895153E-01
  0.57418249E-02  0.11668863E-02 -0.28656515E-02 -0.63907974E-02 -0.94425413E-02
 -0.12053819E-01 -0.14256482E-01 -0.16081274E-01 -0.17557806E-01 -0.18714545E-01
 -0.19578798E-01 -0.20176703E-01 -0.20533227E-01 -0.20672164E-01 -0.20616137E-01
 -0.20386607E-01 -0.20003877E-01 -0.19487109E-01 -0.18854338E-01 -0.18122489E-01
 -0.17307398E-01 -0.16423834E-01 -0.15485524E-01 -0.14505180E-01 -0.13494526E-01
 -0.12464331E-01 -0.11424438E-01 -0.10383794E-01 -0.93504900E-02 -0.83317896E-02
 -0.73341670E-02 -0.63633422E-02 -0.54243167E-02 -0.45214103E-02 -0.36582973E-02
 -0.28380432E-02 -0.20631407E-02 -0.13355459E-02 -0.65671418E-03 -0.27635183E-04
  0.55113260E-03  0.10794278E-02  0.15574530E-02  0.19857425E-02  0.23651308E-02
  0.26967222E-02  0.29818612E-02  0.32221047E-02  0.34191942E-02  0.35750301E-02
  0.36916469E-02  0.37711894E-02  0.38158905E-02  0.38280501E-02  0.38100151E-02
  0.37641610E-02  0.36928746E-02  0.35985378E-02  0.34835128E-02  0.33501287E-02
  0.32006690E-02  0.30373605E-02  0.28623630E-02  0.26777607E-02  0.24855544E-02
  0.22876543E-02  0.20858749E-02  0.18819297E-02  0.16774276E-02  0.14738699E-02
  0.12726482E-02  0.10750432E-02  0.88222382E-03  0.69524781E-03  0.51506220E-03
  0.34250482E-03  0.17830627E-03  0.23092384E-04 -0.12261282E-03 -0.25838380E-03
 -0.38388976E-03 -0.49889058E-03 -0.60323251E-03 -0.69684357E-03 -0.77972879E-03
 -0.85196526E-03 -0.91369708E-03 -0.96513023E-03 -0.10065273E-02 -0.10382025E-02
 -0.10605161E-02 -0.10738696E-02 -0.10787004E-02 -0.10754770E-02 -0.10646939E-02
 -0.10468670E-02 -0.10225291E-02 -0.99222517E-03 -0.95650836E-03 -0.91593591E-03
 -0.87106532E-03 -0.82245074E-03 -0.77063966E-03 -0.71616969E-03 -0.65956577E-03
 -0.60133742E-03 -0.54197646E-03 -0.48195474E-03 -0.42172231E-03 -0.36170573E-03
 -0.30230663E-03 -0.24390051E-03 -0.18683579E-03 -0.13143305E-03 -0.77984493E-04
 -0.26753619E-04  0.22024920E-04  0.68145270E-04  0.11143015E-03  0.15173046E-03
  0.18892475E-03  0.22291854E-03  0.25364348E-03  0.28105645E-03  0.30513851E-03
  0.32589376E-03  0.34334813E-03  0.35754808E-03  0.36855928E-03  0.37646516E-03
  0.38136551E-03  0.38337500E-03  0.38262172E-03  0.37924564E-03  0.37339715E-03
  0.36523558E-03  0.35492774E-03  0.34264644E-03  0.32856917E-03  0.31287665E-03
  0.29575155E-03  0.27737726E-03  0.25793661E-03  0.23761078E-03  0.21657820E-03
  0.19501356E-03  0.17308681E-03  0.15096236E-03  0.12879827E-03  0.10674552E-03
  0.84947377E-04  0.63538856E-04  0.42646220E-04  0.22386584E-04  0.28675821E-05
 -0.15812886E-04 -0.33566835E-04 -0.50316310E-04 -0.65993432E-04 -0.80540373E-04
 -0.93909279E-04 -0.10606213E-03 -0.11697055E-03 -0.12661554E-03 -0.13498721E-03
 -0.14208443E-03 -0.14791446E-03 -0.15249252E-03 -0.15584136E-03 -0.15799078E-03
 -0.15897717E-03 -0.15884293E-03 -0.15763599E-03 -0.15540925E-03 -0.15222003E-03
 -0.14812955E-03 -0.14320230E-03 -0.13750556E-03 -0.13110884E-03 -0.12408331E-03
 -0.11650130E-03 -0.10843582E-03 -0.99959997E-04 -0.91146663E-04 -0.82067878E-04
 -0.72794503E-04 -0.63395804E-04 -0.53939066E-04 -0.44489253E-04 -0.35108682E-04
 -0.25856733E-04 -0.16789591E-04 -0.79600109E-05  0.58287675E-06  0.87937392E-05
  0.16631178E-04  0.24057839E-04  0.31040491E-04  0.37550073E-04  0.43561723E-04
  0.49054767E-04  0.54012691E-04  0.58423085E-04  0.62277563E-04  0.65571665E-04
  0.68304730E-04  0.70479761E-04  0.72103260E-04  0.73185062E-04  0.73738139E-04
  0.73778404E-04  0.73324497E-04  0.72397565E-04  0.71021035E-04  0.69220379E-04
  0.67022875E-04  0.64457369E-04  0.61554034E-04  0.58344126E-04  0.54859749E-04
  0.51133618E-04  0.47198829E-04  0.43088637E-04  0.38836235E-04  0.34474547E-04
  0.30036030E-04  0.25552481E-04  0.21054861E-04  0.16573128E-04  0.12136080E-04
  0.77712160E-05  0.35046049E-05 -0.63922913E-06 -0.46374080E-05 -0.84687878E-05
 -0.12114033E-04 -0.15555674E-04 -0.18778159E-04 -0.21767879E-04 -0.24513194E-04
 -0.27004433E-04 -0.29233896E-04 -0.31195826E-04 -0.32886387E-04 -0.34303619E-04
 -0.35447389E-04 -0.36319330E-04 -0.36922767E-04 -0.37262646E-04 -0.37345443E-04
 -0.37179074E-04 -0.36772797E-04 -0.36137107E-04 -0.35283629E-04 -0.34225009E-04
 -0.32974797E-04 -0.31547334E-04 -0.29957634E-04 -0.28221265E-04 -0.26354236E-04
 -0.24372878E-04 -0.22293730E-04 -0.20133432E-04 -0.17908607E-04 -0.15635768E-04
 -0.13331206E-04 -0.11010900E-04 -0.86904236E-05 -0.63848604E-05 -0.41087222E-05
 -0.18758761E-05  0.30052320E-06  0.24080945E-05  0.44352842E-05  0.63714138E-05
  0.82067200E-05  0.99323885E-05  0.11540580E-04  0.13024450E-04  0.14378161E-04
  0.15596889E-04  0.16676823E-04  0.17615158E-04  0.18410081E-04  0.19060754E-04
  0.19567287E-04  0.19930714E-04  0.20152951E-04  0.20236762E-04  0.20185718E-04
  0.20004143E-04  0.19697070E-04  0.19270188E-04  0.18729782E-04  0.18082680E-04
  0.17336190E-04  0.16498043E-04  0.15576330E-04  0.14579439E-04  0.13515994E-04
  0.12394795E-04  0.11224757E-04  0.10014845E-04  0.87740252E-05  0.75111987E-05
  0.62351535E-05  0.49545095E-05  0.36776691E-05  0.24127706E-05  0.11676439E-05
 -0.50229868E-07 -0.12337561E-05 -0.23762603E-05 -0.34715187E-05 -0.45137846E-05
 -0.54978114E-05 -0.64188717E-05 -0.72727726E-05 -0.80558672E-05 -0.87650624E-05
 -0.93978232E-05 -0.99521728E-05 -0.10426690E-04 -0.10820503E-04 -0.11133278E-04
 -0.11365210E-04 -0.11517003E-04 -0.11589855E-04 -0.11585433E-04 -0.11505854E-04
 -0.11353656E-04 -0.11131774E-04 -0.10843505E-04 -0.10492485E-04 -0.10082649E-04
 -0.96182026E-05 -0.91035889E-05 -0.85434510E-05 -0.79425991E-05 -0.73059749E-05
 -0.66386177E-05 -0.59456289E-05 -0.52321391E-05 -0.45032742E-05 -0.37641234E-05
 -0.30197080E-05 -0.22749513E-05 -0.15346504E-05 -0.80344880E-06 -0.85811224E-07
  0.61399984E-06  0.12919459E-05  0.19442323E-05  0.25673256E-05  0.31579692E-05
  0.37131972E-05  0.42303450E-05  0.47070589E-05  0.51413028E-05  0.55313630E-05
  0.58758508E-05  0.61737027E-05  0.64241796E-05  0.66268624E-05  0.67816471E-05
  0.68887372E-05  0.69486351E-05  0.69621307E-05  0.69302899E-05  0.68544406E-05
  0.67361578E-05  0.65772477E-05  0.63797301E-05  0.61458208E-05  0.58779126E-05
  0.55785557E-05  0.52504379E-05  0.48963639E-05  0.45192353E-05  0.41220293E-05
  0.37077784E-05  0.32795499E-05  0.28404254E-05  0.23934813E-05  0.19417696E-05
  0.14882986E-05  0.10360158E-05  0.58779001E-06  0.14639572E-06 -0.28550253E-06
 -0.70536419E-06 -0.11107858E-05 -0.14995128E-05 -0.18694504E-05 -0.22186728E-05
 -0.25454314E-05 -0.28481619E-05 -0.31254892E-05 -0.33762324E-05 -0.35994070E-05
 -0.37942269E-05 -0.39601045E-05 -0.40966498E-05 -0.42036686E-05 -0.42811584E-05
 -0.43293048E-05 -0.43484753E-05 -0.43392132E-05 -0.43022298E-05 -0.42383962E-05
 -0.41487341E-05 -0.40344060E-05 -0.38967042E-05 -0.37370403E-05 -0.35569331E-05
 -0.33579966E-05 -0.31419279E-05 -0.29104945E-05 -0.26655215E-05 -0.24088786E-05
 -0.21424677E-05 -0.18682100E-05 -0.15880331E-05 -0.13038594E-05 -0.10175934E-05
 -0.73111050E-06 -0.44624577E-06 -0.16478308E-06  0.11155483E-06  0.38111590E-06
  0.64232765E-06  0.89370528E-06  0.11338591E-05  0.13615013E-05  0.15754516E-05
  0.17746427E-05  0.19581239E-05  0.21250655E-05  0.22747604E-05  0.24066264E-05
  0.25202073E-05  0.26151725E-05  0.26913168E-05  0.27485590E-05  0.27869393E-05
  0.28066168E-05  0.28078659E-05  0.27910719E-05  0.27567265E-05  0.27054220E-05
  0.26378458E-05  0.25547738E-05  0.24570638E-05  0.23456482E-05  0.22215264E-05
  0.20857575E-05  0.19394521E-05  0.17837640E-05  0.16198826E-05  0.14490240E-05
  0.12724231E-05  0.10913256E-05  0.90697940E-06  0.72062725E-06  0.53349862E-06
  0.34680241E-06  0.16171972E-06 -0.20603030E-07 -0.19906060E-06 -0.37259504E-06
 -0.54020140E-06 -0.70093295E-06 -0.85390597E-06 -0.99830400E-06 -0.11333816E-05
 -0.12584678E-05 -0.13729683E-05 -0.14763682E-05 -0.15682333E-05 -0.16482116E-05
 -0.17160330E-05 -0.17715104E-05 -0.18145384E-05 -0.18450927E-05 -0.18632285E-05
 -0.18690787E-05 -0.18628511E-05 -0.18448262E-05 -0.18153533E-05 -0.17748475E-05
 -0.17237855E-05 -0.16627013E-05 -0.15921819E-05 -0.15128623E-05 -0.14254208E-05
 -0.13305739E-05 -0.12290705E-05 -0.11216872E-05 -0.10092226E-05 -0.89249170E-06
 -0.77232061E-06 -0.64954110E-06 -0.52498519E-06 -0.39947998E-06 -0.27384245E-06
 -0.14887458E-06 -0.25358559E-07  0.95947769E-07  0.21431519E-06  0.32904718E-06
  0.43948363E-06  0.54500434E-06  0.64503214E-06  0.73903569E-06  0.82653199E-06
  0.90708842E-06  0.98032459E-06  0.10459137E-05  0.11035835E-05  0.11531171E-05
  0.11943533E-05  0.12271863E-05  0.12515656E-05  0.12674952E-05  0.12750324E-05
  0.12742866E-05  0.12654175E-05  0.12486334E-05  0.12241886E-05  0.11923812E-05
  0.11535504E-05  0.11080733E-05  0.10563624E-05  0.99886157E-06  0.93604346E-06
  0.86840541E-06  0.79646610E-06  0.72076186E-06  0.64184297E-06  0.56026989E-06
  0.47660961E-06  0.39143188E-06  0.30530565E-06  0.21879544E-06  0.13245791E-06
  0.46838444E-07 -0.37532016E-07 -0.12014010E-06 -0.20049290E-06 -0.27812073E-06
 -0.35257960E-06 -0.42345364E-06 -0.49035712E-06 -0.55293640E-06 -0.61087154E-06
 -0.66387774E-06 -0.71170646E-06 -0.75414638E-06 -0.79102404E-06 -0.82220424E-06
 -0.84759023E-06 -0.86712366E-06 -0.88078418E-06 -0.88858898E-06 -0.89059196E-06
 -0.88688277E-06 -0.87758558E-06 -0.86285772E-06 -0.84288809E-06 -0.81789541E-06
 -0.78812631E-06 -0.75385330E-06 -0.71537262E-06 -0.67300190E-06 -0.62707783E-06
 -0.57795371E-06 -0.52599690E-06 -0.47158628E-06 -0.41510969E-06 -0.35696127E-06
 -0.29753895E-06 -0.23724180E-06 -0.17646753E-06 -0.11561003E-06 -0.55056926E-07
  0.48127484E-08  0.63630781E-07  0.12104192E-06  0.17670589E-06  0.23029928E-06
  0.28151728E-06  0.33007528E-06  0.37571036E-06  0.41818252E-06  0.45727581E-06
  0.49279935E-06  0.52458799E-06  0.55250302E-06  0.57643254E-06  0.59629172E-06
  0.61202290E-06  0.62359545E-06  0.63100557E-06  0.63427580E-06  0.63345449E-06
  0.62861501E-06  0.61985493E-06  0.60729496E-06  0.59107780E-06  0.57136691E-06
  0.54834510E-06  0.52221308E-06  0.49318788E-06  0.46150124E-06  0.42739790E-06
  0.39113380E-06  0.35297436E-06  0.31319259E-06  0.27206728E-06  0.22988114E-06
  0.18691895E-06  0.14346573E-06  0.99804963E-07  0.56216822E-07  0.12976453E-07
 -0.29647666E-07 -0.71395308E-07 -0.11201600E-06 -0.15127046E-06 -0.18893189E-06
 -0.22478721E-06 -0.25863821E-06 -0.29030252E-06 -0.31961451E-06 -0.34642610E-06
 -0.37060734E-06 -0.39204701E-06 -0.41065296E-06 -0.42635244E-06 -0.43909219E-06
 -0.44883852E-06 -0.45557717E-06 -0.45931311E-06 -0.46007020E-06 -0.45789072E-06
 -0.45283484E-06 -0.44497996E-06 -0.43441991E-06 -0.42126415E-06 -0.40563679E-06
 -0.38767561E-06 -0.36753098E-06 -0.34536466E-06 -0.32134869E-06 -0.29566408E-06
 -0.26849954E-06 -0.24005019E-06 -0.21051625E-06 -0.18010162E-06 -0.14901265E-06
 -0.11745670E-06 -0.85640883E-07 -0.53770757E-07 -0.22049029E-07  0.93256544E-08
  0.40159903E-07  0.70266718E-07  0.99466568E-07  0.12758841E-06  0.15447063E-06
  0.17996192E-06  0.20392206E-06  0.22622265E-06  0.24674774E-06  0.26539434E-06
  0.28207288E-06  0.29670761E-06  0.30923681E-06  0.31961300E-06  0.32780300E-06
  0.33378795E-06  0.33756319E-06  0.33913809E-06  0.33853575E-06  0.33579268E-06
  0.33095837E-06  0.32409474E-06  0.31527561E-06  0.30458604E-06  0.29212163E-06
  0.27798774E-06  0.26229870E-06  0.24517698E-06  0.22675223E-06  0.20716043E-06
  0.18654290E-06  0.16504532E-06  0.14281680E-06  0.12000883E-06  0.96774341E-07
  0.73266681E-07  0.49638673E-07  0.26041649E-07  0.26245182E-08 -0.20467131E-07
 -0.43091901E-07 -0.65113412E-07 -0.86401087E-07 -0.10683089E-06 -0.12628601E-06
 -0.14465748E-06 -0.16184478E-06 -0.17775631E-06 -0.19230987E-06 -0.20543299E-06
 -0.21706331E-06 -0.22714878E-06 -0.23564785E-06 -0.24252960E-06 -0.24777374E-06
 -0.25137062E-06 -0.25332112E-06 -0.25363651E-06 -0.25233819E-06 -0.24945747E-06
 -0.24503518E-06 -0.23912129E-06 -0.23177447E-06 -0.22306162E-06 -0.21305729E-06
 -0.20184310E-06 -0.18950718E-06 -0.17614346E-06 -0.16185104E-06 -0.14673347E-06
 -0.13089804E-06 -0.11445507E-06 -0.97517124E-07 -0.80198336E-07 -0.62613617E-07
 -0.44877947E-07 -0.27105639E-07 -0.94096361E-08  0.80991836E-08  0.25312676E-07
  0.42126071E-07  0.58438589E-07  0.74154014E-07  0.89181239E-07  0.10343477E-06
  0.11683517E-06  0.12930952E-06  0.14079171E-06  0.15122285E-06  0.16055146E-06
  0.16873375E-06  0.17573376E-06  0.18152348E-06  0.18608294E-06  0.18940018E-06
  0.19147127E-06  0.19230017E-06  0.19189864E-06  0.19028604E-06  0.18748909E-06
  0.18354163E-06  0.17848430E-06  0.17236418E-06  0.16523442E-06  0.15715381E-06
  0.14818635E-06  0.13840074E-06  0.12786995E-06  0.11667063E-06  0.10488262E-06
  0.92588403E-07  0.79872537E-07  0.66821097E-07  0.53521121E-07  0.40060041E-07
  0.26525130E-07  0.13002958E-07 -0.42114587E-09 -0.13663616E-07 -0.26643147E-07
 -0.39281182E-07 -0.51502363E-07 -0.63234969E-07 -0.74411313E-07 -0.84968119E-07
 -0.94846859E-07 -0.10399406E-06 -0.11236157E-06 -0.11990679E-06 -0.12659288E-06
 -0.13238890E-06 -0.13726993E-06 -0.14121716E-06 -0.14421790E-06 -0.14626562E-06
 -0.14735986E-06 -0.14750620E-06 -0.14671612E-06 -0.14500686E-06 -0.14240122E-06
 -0.13892737E-06 -0.13461857E-06 -0.12951293E-06 -0.12365309E-06 -0.11708588E-06
 -0.10986198E-06 -0.10203557E-06 -0.93663915E-07 -0.84806981E-07 -0.75527017E-07
 -0.65888137E-07 -0.55955889E-07 -0.45796827E-07 -0.35478076E-07 -0.25066906E-07
 -0.14630304E-07 -0.42345569E-08  0.60551569E-08  0.16175163E-07  0.26063671E-07
  0.35661143E-07  0.44910636E-07  0.53758129E-07  0.62152823E-07  0.70047424E-07
  0.77398391E-07  0.84166167E-07  0.90315373E-07  0.95814980E-07  0.10063845E-06
  0.10476384E-06  0.10817389E-06  0.11085608E-06  0.11280261E-06  0.11401045E-06
  0.11448123E-06  0.11422125E-06  0.11324130E-06  0.11155660E-06  0.10918661E-06
  0.10615488E-06  0.10248881E-06  0.98219505E-07  0.93381439E-07  0.88012267E-07
  0.82152519E-07  0.75845313E-07  0.69136053E-07  0.62072114E-07  0.54702519E-07
  0.47077613E-07  0.39248725E-07  0.31267837E-07  0.23187246E-07  0.15059233E-07
  0.69357322E-08 -0.11319881E-08 -0.90936442E-08 -0.16900238E-07 -0.24504353E-07
 -0.31860427E-07 -0.38925024E-07 -0.45657076E-07 -0.52018113E-07 -0.57972476E-07
 -0.63487504E-07 -0.68533705E-07 -0.73084902E-07 -0.77118357E-07 -0.80614873E-07
 -0.83558871E-07 -0.85938446E-07 -0.87745394E-07 -0.88975222E-07 -0.89627130E-07
 -0.89703969E-07 -0.89212184E-07 -0.88161726E-07 -0.86565948E-07 -0.84441482E-07
 -0.81808092E-07 -0.78688512E-07 -0.75108272E-07 -0.71095496E-07 -0.66680702E-07
 atomic pseudo charge-density
  0.50000000E+01  0.49905920E+01  0.49625297E+01  0.49162908E+01  0.48526485E+01
  0.47726391E+01  0.46775203E+01  0.45687233E+01  0.44478032E+01  0.43163885E+01
  0.41761349E+01  0.40286837E+01  0.38756263E+01  0.37184763E+01  0.35586481E+01
  0.33974423E+01  0.32360366E+01  0.30754820E+01  0.29167034E+01  0.27605022E+01
  0.26075624E+01  0.24584576E+01  0.23136596E+01  0.21735467E+01  0.20384129E+01
  0.19084767E+01  0.17838898E+01  0.16647446E+01  0.15510824E+01  0.14428999E+01
  0.13401557E+01  0.12427762E+01  0.11506608E+01  0.10636865E+01  0.98171195E+00
  0.90458151E+00  0.83212828E+00  0.76417699E+00  0.70054656E+00  0.64105228E+00
  0.58550764E+00  0.53372598E+00  0.48552187E+00  0.44071220E+00  0.39911723E+00
  0.36056131E+00  0.32487355E+00  0.29188830E+00  0.26144558E+00  0.23339135E+00
  0.20757768E+00  0.18386290E+00  0.16211167E+00  0.14219496E+00  0.12399001E+00
  0.10738023E+00  0.92255117E-01  0.78510094E-01  0.66046340E-01  0.54770619E-01
  0.44595081E-01  0.35437068E-01  0.27218897E-01  0.19867657E-01  0.13314992E-01
  0.74968918E-02  0.23534806E-02 -0.21711878E-02 -0.61293327E-02 -0.95696425E-02
 -0.12537466E-01 -0.15074997E-01 -0.17221453E-01 -0.19013243E-01 -0.20484137E-01
 -0.21665419E-01 -0.22586037E-01 -0.23272751E-01 -0.23750260E-01 -0.24041340E-01
 -0.24166964E-01 -0.24146415E-01 -0.23997401E-01 -0.23736156E-01 -0.23377541E-01
 -0.22935134E-01 -0.22421319E-01 -0.21847371E-01 -0.21223528E-01 -0.20559071E-01
 -0.19862388E-01 -0.19141040E-01 -0.18401825E-01 -0.17650830E-01 -0.16893486E-01
 -0.16134622E-01 -0.15378508E-01 -0.14628898E-01 -0.13889077E-01 -0.13161895E-01
 -0.12449804E-01 -0.11754892E-01 -0.11078916E-01 -0.10423328E-01 -0.97893046E-02
 -0.91777747E-02 -0.85894389E-02 -0.80247946E-02 -0.74841555E-02 -0.69676713E-02
 -0.64753448E-02 -0.60070491E-02 -0.55625422E-02 -0.51414813E-02 -0.47434360E-02
 -0.43678999E-02 -0.40143022E-02 -0.36820170E-02 -0.33703735E-02 -0.30786639E-02
 -0.28061514E-02 -0.25520773E-02 -0.23156672E-02 -0.20961373E-02 -0.18926989E-02
 -0.17045640E-02 -0.15309487E-02 -0.13710775E-02 -0.12241863E-02 -0.10895255E-02
 -0.96636253E-03 -0.85398382E-03 -0.75169688E-03 -0.65883177E-03 -0.57474239E-03
 -0.49880752E-03 -0.43043157E-03 -0.36904520E-03 -0.31410565E-03 -0.26509697E-03
 -0.22153001E-03 -0.18294234E-03 -0.14889795E-03 -0.11898694E-03 -0.92824957E-04
 -0.70052699E-04 -0.50335206E-04 -0.33361154E-04 -0.18842060E-04 -0.65114418E-05
  0.38760640E-05  0.12545617E-04  0.19703116E-04  0.25536157E-04  0.30215003E-04
  0.33893560E-04  0.36710351E-04  0.38789484E-04  0.40241608E-04  0.41164852E-04
  0.41645747E-04  0.41760126E-04  0.41573989E-04  0.41144351E-04  0.40520049E-04
  0.39742521E-04  0.38846542E-04  0.37860937E-04  0.36809243E-04  0.35710335E-04
  0.34579024E-04  0.33426600E-04  0.32261349E-04  0.31089020E-04  0.29913268E-04
  0.28736041E-04  0.27557948E-04  0.26378579E-04  0.25196797E-04  0.24010989E-04
  0.22819298E-04  0.21619810E-04  0.20410720E-04  0.19190472E-04  0.17957867E-04
  0.16712152E-04  0.15453086E-04  0.14180984E-04  0.12896743E-04  0.11601854E-04
  0.10298393E-04  0.89890031E-05  0.76768662E-05  0.63656585E-05  0.50595032E-05
  0.37629135E-05  0.24807308E-05  0.12180587E-05 -0.19806011E-07 -0.12274439E-05
 -0.23993842E-05 -0.35301748E-05 -0.46144522E-05 -0.56470072E-05 -0.66228492E-05
 -0.75372655E-05 -0.83858767E-05 -0.91646872E-05 -0.98701301E-05 -0.10499106E-04
 -0.11049019E-04 -0.11517798E-04 -0.11903926E-04 -0.12206449E-04 -0.12424986E-04
 -0.12559733E-04 -0.12611458E-04 -0.12581494E-04 -0.12471724E-04 -0.12284560E-04
 -0.12022921E-04 -0.11690202E-04 -0.11290245E-04 -0.10827301E-04 -0.10305988E-04
 -0.97312548E-05 -0.91083334E-05 -0.84426946E-05 -0.77400007E-05 -0.70060589E-05
 -0.62467727E-05 -0.54680947E-05 -0.46759794E-05 -0.38763376E-05 -0.30749910E-05
 -0.22776303E-05 -0.14897734E-05 -0.71672769E-06  0.36446148E-07  0.76496695E-06
  0.14643630E-05  0.21304984E-05  0.27595966E-05  0.33482598E-05  0.38934853E-05
  0.43926780E-05  0.48436591E-05  0.52446718E-05  0.55943827E-05  0.58918808E-05
  0.61366719E-05  0.63286707E-05  0.64681899E-05  0.65559257E-05  0.65929415E-05
  0.65806487E-05  0.65207850E-05  0.64153916E-05  0.62667880E-05  0.60775454E-05
  0.58504589E-05  0.55885193E-05  0.52948831E-05  0.49728434E-05  0.46257997E-05
  0.42572277E-05  0.38706504E-05  0.34696089E-05  0.30576339E-05  0.26382188E-05
  0.22147936E-05  0.17907001E-05  0.13691687E-05  0.95329688E-06  0.54602920E-06
  0.15013960E-06 -0.23178471E-06 -0.59735719E-06 -0.94440390E-06 -0.12709732E-05
 -0.15753435E-05 -0.18560289E-05 -0.21117823E-05 -0.23415974E-05 -0.25447077E-05
 -0.27205840E-05 -0.28689307E-05 -0.29896788E-05 -0.30829791E-05 -0.31491924E-05
 -0.31888793E-05 -0.32027881E-05 -0.31918419E-05 -0.31571250E-05 -0.30998675E-05
 -0.30214307E-05 -0.29232904E-05 -0.28070211E-05 -0.26742793E-05 -0.25267869E-05
 -0.23663147E-05 -0.21946660E-05 -0.20136607E-05 -0.18251196E-05 -0.16308495E-05
 -0.14326290E-05 -0.12321947E-05 -0.10312286E-05 -0.83134649E-06 -0.63408715E-06
 -0.44090249E-06 -0.25314913E-06 -0.72080844E-07  0.10115770E-06  0.26553608E-06
  0.42014209E-06  0.56418455E-06  0.69699494E-06  0.81802795E-06  0.92686092E-06
  0.10231923E-05  0.11068390E-05  0.11777330E-05  0.12359169E-05  0.12815390E-05
  0.13148469E-05  0.13361816E-05  0.13459702E-05  0.13447181E-05  0.13330018E-05
  0.13114596E-05  0.12807841E-05  0.12417133E-05  0.11950216E-05  0.11415117E-05
  0.10820059E-05  0.10173376E-05  0.94834350E-06  0.87585551E-06  0.80069362E-06
  0.72365875E-06  0.64552626E-06  0.56704000E-06  0.48890679E-06  0.41179161E-06
  0.33631328E-06  0.26304088E-06  0.19249068E-06  0.12512377E-06  0.61344357E-07
  0.14986012E-08 -0.54125860E-07 -0.10529983E-06 -0.15185187E-06 -0.19366714E-06
 -0.23068562E-06 -0.26289995E-06 -0.29035279E-06 -0.31313381E-06 -0.33137632E-06
 -0.34525357E-06 -0.35497483E-06 -0.36078130E-06 -0.36294175E-06 -0.36174820E-06
 -0.35751140E-06 -0.35055639E-06 -0.34121809E-06 -0.32983692E-06 -0.31675458E-06
 -0.30230999E-06 -0.28683541E-06 -0.27065281E-06 -0.25407048E-06 -0.23737998E-06
 -0.22085331E-06 -0.20474050E-06 -0.18926751E-06 -0.17463447E-06 -0.16101433E-06
 -0.14855181E-06 -0.13736279E-06 -0.12753402E-06 -0.11912320E-06 -0.11215938E-06
 -0.10664373E-06 -0.10255058E-06 -0.99828801E-07 -0.98403375E-07 -0.98177300E-07
 -0.99033647E-07 -0.10083783E-06 -0.10344002E-06 -0.10667772E-06 -0.11037837E-06
 -0.11436209E-06 -0.11844441E-06 -0.12243900E-06 -0.12616038E-06 -0.12942661E-06
 -0.13206179E-06 -0.13389857E-06 -0.13478041E-06 -0.13456374E-06 -0.13311993E-06
 -0.13033702E-06 -0.12612129E-06 -0.12039852E-06 -0.11311507E-06 -0.10423867E-06
 -0.93758973E-07 -0.81687829E-07 -0.68059304E-07 -0.52929441E-07 -0.36375762E-07
 -0.18496531E-07  0.59022411E-09  0.20747912E-07  0.41822785E-07  0.63645541E-07
  0.86033091E-07  0.10879049E-06  0.13171301E-06  0.15458825E-06  0.17719848E-06
  0.19932287E-06  0.22073989E-06  0.24122967E-06  0.26057632E-06  0.27857032E-06
  0.29501068E-06  0.30970720E-06  0.32248250E-06  0.33317399E-06  0.34163564E-06
  0.34773967E-06  0.35137798E-06  0.35246343E-06  0.35093092E-06  0.34673827E-06
  0.33986679E-06  0.33032177E-06  0.31813259E-06  0.30335273E-06  0.28605941E-06
  0.26635317E-06  0.24435706E-06  0.22021573E-06  0.19409426E-06  0.16617682E-06
  0.13666514E-06  0.10577682E-06  0.73743458E-07  0.40808699E-07  0.72261265E-08
 -0.26742924E-07 -0.60831628E-07 -0.94769988E-07 -0.12828718E-06 -0.16111393E-06
 -0.19298483E-06 -0.22364068E-06 -0.25283076E-06 -0.28031499E-06 -0.30586604E-06
 -0.32927136E-06 -0.35033495E-06 -0.36887915E-06 -0.38474616E-06 -0.39779944E-06
 -0.40792488E-06 -0.41503180E-06 -0.41905379E-06 -0.41994925E-06 -0.41770178E-06
 -0.41232035E-06 -0.40383924E-06 -0.39231772E-06 -0.37783965E-06 -0.36051270E-06
 -0.34046749E-06 -0.31785651E-06 -0.29285283E-06 -0.26564868E-06 -0.23645382E-06
 -0.20549382E-06 -0.17300821E-06 -0.13924843E-06 -0.10447586E-06 -0.68959559E-07
 -0.32974141E-07  0.32025135E-08  0.39291508E-07  0.75015195E-07  0.11009942E-06
  0.14427575E-06  0.17728357E-06  0.20887223E-06  0.23880298E-06  0.26685085E-06
  0.29280645E-06  0.31647753E-06  0.33769051E-06  0.35629173E-06  0.37214864E-06
  0.38515076E-06  0.39521042E-06  0.40226338E-06  0.40626921E-06  0.40721150E-06
  0.40509785E-06  0.39995967E-06  0.39185182E-06  0.38085200E-06  0.36706004E-06
  0.35059693E-06  0.33160375E-06  0.31024045E-06  0.28668440E-06  0.26112891E-06
  0.23378158E-06  0.20486258E-06  0.17460279E-06  0.14324192E-06  0.11102656E-06
  0.78208159E-07  0.45041030E-07  0.11780312E-07 -0.21320041E-07 -0.54009251E-07
 -0.86041663E-07 -0.11717863E-06 -0.14719035E-06 -0.17585757E-06 -0.20297322E-06
 -0.22834396E-06 -0.25179155E-06 -0.27315414E-06 -0.29228735E-06 -0.30906530E-06
 -0.32338136E-06 -0.33514886E-06 -0.34430157E-06 -0.35079400E-06 -0.35460158E-06
 -0.35572065E-06 -0.35416827E-06 -0.34998189E-06 -0.34321885E-06 -0.33395573E-06
 -0.32228759E-06 -0.30832698E-06 -0.29220292E-06 -0.27405973E-06 -0.25405571E-06
 -0.23236179E-06 -0.20916005E-06 -0.18464218E-06 -0.15900790E-06 -0.13246331E-06
 -0.10521920E-06 -0.77489393E-07 -0.49489026E-07 -0.21432880E-07  0.64662897E-08
  0.33999377E-07  0.60962503E-07  0.87158536E-07  0.11239853E-06  0.13650311E-06
  0.15930372E-06  0.18064381E-06  0.20037989E-06  0.21838250E-06  0.23453699E-06
  0.24874429E-06  0.26092141E-06  0.27100191E-06  0.27893620E-06  0.28469170E-06
  0.28825287E-06  0.28962109E-06  0.28881447E-06  0.28586745E-06  0.28083032E-06
  0.27376862E-06  0.26476246E-06  0.25390564E-06  0.24130482E-06  0.22707844E-06
  0.21135570E-06  0.19427540E-06  0.17598472E-06  0.15663799E-06  0.13639540E-06
  0.11542167E-06  0.93884726E-07  0.71954370E-07  0.49800933E-07  0.27593970E-07
  0.55009655E-08 -0.16313923E-07 -0.37691072E-07 -0.58476554E-07 -0.78523227E-07
 -0.97691766E-07 -0.11585161E-06 -0.13288182E-06 -0.14867187E-06 -0.16312234E-06
 -0.17614547E-06 -0.18766569E-06 -0.19761998E-06 -0.20595816E-06 -0.21264306E-06
 -0.21765064E-06 -0.22096990E-06 -0.22260280E-06 -0.22256399E-06 -0.22088054E-06
 -0.21759151E-06 -0.21274742E-06 -0.20640973E-06 -0.19865016E-06 -0.18954994E-06
 -0.17919910E-06 -0.16769556E-06 -0.15514432E-06 -0.14165646E-06 -0.12734825E-06
 -0.11234016E-06 -0.96755849E-07 -0.80721185E-07 -0.64363243E-07 -0.47809315E-07
 -0.31185940E-07 -0.14617951E-07  0.17724402E-08  0.17866530E-07  0.33549960E-07
  0.48713505E-07  0.63253813E-07  0.77074082E-07  0.90084675E-07  0.10220367E-06
  0.11335732E-06  0.12348050E-06  0.13251700E-06  0.14041981E-06  0.14715127E-06
  0.15268322E-06  0.15699700E-06  0.16008343E-06  0.16194268E-06  0.16258409E-06
  0.16202592E-06  0.16029507E-06  0.15742665E-06  0.15346361E-06  0.14845620E-06
  0.14246150E-06  0.13554283E-06  0.12776915E-06  0.11921439E-06  0.10995688E-06
  0.10007856E-06  0.89664375E-07  0.78801529E-07  0.67578792E-07  0.56085802E-07
  0.44412367E-07  0.32647790E-07  0.20880203E-07  0.91959339E-08 -0.23211085E-08
 -0.13590012E-07 -0.24533405E-07 -0.35077961E-07 -0.45154863E-07 -0.54700221E-07
 -0.63655445E-07 -0.71967567E-07 -0.79589517E-07 -0.86480345E-07 -0.92605388E-07
 -0.97936395E-07 -0.10245159E-06 -0.10613570E-06 -0.10897991E-06 -0.11098179E-06
 -0.11214515E-06 -0.11247991E-06 -0.11200184E-06 -0.11073234E-06 -0.10869813E-06
 -0.10593094E-06 -0.10246714E-06 -0.98347388E-07 -0.93616202E-07 -0.88321545E-07
 -0.82514391E-07 -0.76248268E-07 -0.69578803E-07 -0.62563260E-07 -0.55260072E-07
 -0.47728383E-07 -0.40027591E-07 -0.32216902E-07 -0.24354898E-07 -0.16499119E-07
 -0.87056653E-08 -0.10288158E-08  0.64793227E-08  0.13769146E-07  0.20793857E-07
  0.27509733E-07  0.33876374E-07  0.39856912E-07  0.45418190E-07  0.50530913E-07
  0.55169755E-07  0.59313448E-07  0.62944826E-07  0.66050847E-07  0.68622574E-07
  0.70655135E-07  0.72147646E-07  0.73103114E-07  0.73528309E-07  0.73433610E-07
  0.72832836E-07  0.71743046E-07  0.70184331E-07  0.68179584E-07  0.65754252E-07
  0.62936085E-07  0.59754872E-07  0.56242166E-07  0.52431005E-07  0.48355636E-07
  0.44051235E-07  0.39553620E-07  0.34898985E-07  0.30123622E-07  0.25263664E-07
  0.20354828E-07  0.15432173E-07  0.10529868E-07  0.56809784E-08  0.91725923E-09
 -0.37310281E-08 -0.82352874E-08 -0.12568739E-07 -0.16706557E-07 -0.20625979E-07
 -0.24306413E-07 -0.27729508E-07 -0.30879216E-07 -0.33741836E-07 -0.36306036E-07
 -0.38562856E-07 -0.40505700E-07 -0.42130304E-07 -0.43434695E-07 -0.44419131E-07
 -0.45086029E-07 -0.45439877E-07 -0.45487138E-07 -0.45236143E-07 -0.44696971E-07
 -0.43881326E-07 -0.42802401E-07 -0.41474740E-07 -0.39914096E-07 -0.38137284E-07
 -0.36162030E-07 -0.34006822E-07 -0.31690761E-07 -0.29233413E-07 -0.26654658E-07
 -0.23974551E-07 -0.21213181E-07 -0.18390537E-07 -0.15526378E-07 -0.12640112E-07
 -0.97506788E-08 -0.68764451E-08 -0.40351009E-08 -0.12435699E-08  0.14820740E-08
  0.41266809E-08  0.66760900E-08  0.91171860E-08  0.11437946E-07  0.13627476E-07
  0.15676045E-07  0.17575098E-07  0.19317274E-07  0.20896408E-07  0.22307526E-07
  0.23546836E-07  0.24611705E-07  0.25500640E-07  0.26213253E-07  0.26750223E-07
  0.27113260E-07  0.27305052E-07  0.27329217E-07  0.27190249E-07  0.26893461E-07
  0.26444925E-07  0.25851408E-07  0.25120311E-07  0.24259604E-07  0.23277761E-07
  0.22183692E-07  0.20986680E-07  0.19696316E-07  0.18322435E-07  0.16875054E-07
  0.15364307E-07  0.13800391E-07  0.12193506E-07  0.10553800E-07  0.88913146E-08
  0.72159395E-08  0.55373613E-08  0.38650200E-08  0.22080679E-08  0.57533064E-09
 -0.10247285E-08 -0.25840406E-08 -0.40949610E-08 -0.55502955E-08 -0.69433235E-08
 -0.82678188E-08 -0.95180663E-08 -0.10688877E-07 -0.11775600E-07 -0.12774129E-07
 -0.13680913E-07 -0.14492954E-07 -0.15207814E-07 -0.15823609E-07 -0.16339008E-07
 -0.16753223E-07 -0.17066009E-07 -0.17277643E-07 -0.17388920E-07 -0.17401137E-07
 -0.17316073E-07 -0.17135977E-07 -0.16863544E-07 -0.16501899E-07 -0.16054570E-07
 -0.15525466E-07 -0.14918856E-07 -0.14239335E-07 -0.13491805E-07 -0.12681442E-07
 -0.11813670E-07 -0.10894129E-07 -0.99286449E-08 -0.89232016E-08 -0.78839062E-08
 -0.68169590E-08 -0.57286216E-08 -0.46251849E-08 -0.35129372E-08 -0.23981325E-08
 -0.12869593E-08 -0.18550942E-09  0.90025205E-09  0.19645167E-08  0.30016612E-08
  0.40062758E-08  0.49731901E-08  0.58974993E-08  0.67745876E-08  0.76001512E-08
  0.83702188E-08  0.90811706E-08  0.97297560E-08  0.10313108E-07  0.10828758E-07
  0.11274643E-07  0.11649120E-07  0.11950967E-07  0.12179389E-07  0.12334020E-07
  0.12414923E-07  0.12422584E-07  0.12357908E-07  0.12222211E-07  0.12017208E-07
  0.11745001E-07  0.11408065E-07  0.11009226E-07  0.10551650E-07  0.10038810E-07
  0.94744748E-08  0.88626739E-08  0.82076771E-08  0.75139638E-08  0.67861949E-08
  0.60291819E-08  0.52478566E-08  0.44472388E-08  0.36324048E-08  0.28084547E-08
  0.19804809E-08  0.11535356E-08  0.33259958E-09 -0.47744873E-09 -0.12718630E-08
 -0.20460577E-08 -0.27956360E-08 -0.35164154E-08 -0.42044521E-08 -0.48560642E-08
 -0.54678513E-08 -0.60367141E-08 -0.65598699E-08 -0.70348669E-08 -0.74595957E-08
 -0.78322984E-08 -0.81515755E-08 -0.84163894E-08 -0.86260664E-08 -0.87802955E-08
 -0.88791250E-08 -0.89229562E-08 -0.89125353E-08 -0.88489427E-08 -0.87335802E-08
 -0.85681558E-08 -0.83546674E-08 -0.80953835E-08 -0.77928233E-08 -0.74497348E-08
 -0.70690720E-08 -0.66539706E-08 -0.62077232E-08 -0.57337536E-08 -0.52355905E-08
 -0.47168415E-08 -0.41811662E-08 -0.36322503E-08 -0.30737792E-08 -0.25094131E-08
 -0.19427619E-08 -0.13773614E-08 -0.81665079E-09 -0.26395089E-09  0.27755587E-09
  0.80484408E-09  0.13150623E-08  0.18055485E-08  0.22738432E-08  0.27177016E-08
  0.31351029E-08  0.35242580E-08  0.38836155E-08  0.42118649E-08  0.45079391E-08
  0.47710134E-08  0.50005043E-08  0.51960652E-08  0.53575809E-08  0.54851602E-08
  0.55791275E-08  0.56400123E-08  0.56685377E-08  0.56656077E-08  0.56322939E-08
  0.55698207E-08  0.54795500E-08  0.53629657E-08  0.52216569E-08  0.50573021E-08
  0.48716523E-08  0.46665146E-08  0.44437363E-08  0.42051888E-08  0.39527520E-08
  0.36883003E-08  0.34136877E-08  0.31307355E-08  0.28412196E-08  0.25468598E-08
  0.22493096E-08  0.19501477E-08  0.16508700E-08  0.13528831E-08  0.10574999E-08
  0.76593521E-09  0.47930341E-09  0.19861723E-09 -0.75212429E-10 -0.34137552E-09
   25.1333556480997      T
 Non local Part
           0           2  0.809101009264628     
   4.95117806065304        5.78043321655911        5.78043321655911     
   6.74039580541299     
 Reciprocal Space Part
  0.53611357E+02  0.53292218E+02  0.52337589E+02  0.50755826E+02  0.48560816E+02
  0.45771922E+02  0.42413897E+02  0.38516769E+02  0.34115688E+02  0.29250737E+02
  0.23966699E+02  0.18312769E+02  0.12342218E+02  0.61119970E+01 -0.31772164E+00
 -0.68840574E+01 -0.13522001E+02 -0.20165053E+02 -0.26745910E+02 -0.33197211E+02
 -0.39452313E+02 -0.45446104E+02 -0.51115834E+02 -0.56401952E+02 -0.61248931E+02
 -0.65606074E+02 -0.69428275E+02 -0.72676722E+02 -0.75319534E+02 -0.77332302E+02
 -0.78698528E+02 -0.79409953E+02 -0.79466753E+02 -0.78877603E+02 -0.77659599E+02
 -0.75838039E+02 -0.73446061E+02 -0.70524136E+02 -0.67119438E+02 -0.63285085E+02
 -0.59079268E+02 -0.54564300E+02 -0.49805569E+02 -0.44870453E+02 -0.39827191E+02
 -0.34743744E+02 -0.29686672E+02 -0.24720041E+02 -0.19904388E+02 -0.15295764E+02
 -0.10944877E+02 -0.68963499E+01 -0.31881027E+01  0.14911751E+00  0.30920606E+01
  0.56251417E+01  0.77404546E+01  0.94376309E+01  0.10723552E+02  0.11611923E+02
  0.12122718E+02  0.12281521E+02  0.12118763E+02  0.11668893E+02  0.10969492E+02
  0.10060351E+02  0.89825471E+01  0.77775222E+01  0.64861951E+01  0.51481270E+01
  0.38007521E+01  0.24786942E+01  0.12131787E+01  0.31551524E-01 -0.10430880E+01
 -0.19921365E+01 -0.28016168E+01 -0.34621917E+01 -0.39690663E+01 -0.43217848E+01
 -0.45239346E+01 -0.45827671E+01 -0.45087503E+01 -0.43150671E+01 -0.40170764E+01
 -0.36317507E+01 -0.31771083E+01 -0.26716538E+01 -0.21338418E+01 -0.15815768E+01
 -0.10317607E+01 -0.49989762E+00  0.23723823E-03  0.45685814E+00  0.86035666E+00
  0.12034154E+01  0.14810490E+01  0.16905755E+01  0.18315239E+01  0.19054826E+01
 Real Space Part
 -0.13484615E+04 -0.13474916E+04 -0.13445843E+04 -0.13397468E+04 -0.13329913E+04
 -0.13243347E+04 -0.13137986E+04 -0.13014090E+04 -0.12871967E+04 -0.12711967E+04
 -0.12534480E+04 -0.12339939E+04 -0.12128816E+04 -0.11901617E+04 -0.11658884E+04
 -0.11401194E+04 -0.11129154E+04 -0.10843398E+04 -0.10544591E+04 -0.10233420E+04
 -0.99105995E+03 -0.95768626E+03 -0.92329647E+03 -0.88796797E+03 -0.85177991E+03
 -0.81481306E+03 -0.77714974E+03 -0.73887363E+03 -0.70006975E+03 -0.66082435E+03
 -0.62122483E+03 -0.58135967E+03 -0.54131838E+03 -0.50119143E+03 -0.46107018E+03
 -0.42104685E+03 -0.38121441E+03 -0.34166658E+03 -0.30249767E+03 -0.26380257E+03
 -0.22567657E+03 -0.18821531E+03 -0.15151456E+03 -0.11567015E+03 -0.80777677E+02
 -0.46932361E+02 -0.14228761E+02  0.17239501E+02  0.47380054E+02  0.76102132E+02
  0.10331696E+03  0.12893818E+03  0.15288230E+03  0.17506920E+03  0.19542265E+03
  0.21387087E+03  0.23034710E+03  0.24479022E+03  0.25714535E+03  0.26736449E+03
  0.27540716E+03  0.28124099E+03  0.28484239E+03  0.28619706E+03  0.28530062E+03
  0.28215904E+03  0.27678914E+03  0.26921894E+03  0.25948797E+03  0.24764744E+03
  0.23376039E+03  0.21790162E+03  0.20015761E+03  0.18062622E+03  0.15941626E+03
  0.13664675E+03  0.11244432E+03  0.86947330E+02  0.60534274E+02  0.36442330E+02
  0.27135016E+02  0.17187261E+02  0.75331399E+01 -0.16299569E+01 -0.10169232E+02
 -0.17951292E+02 -0.24846481E+02 -0.30731933E+02 -0.35492215E+02 -0.39020353E+02
 -0.41219151E+02 -0.42001200E+02 -0.41290307E+02 -0.39021721E+02 -0.35142591E+02
 -0.29607021E+02 -0.22402170E+02 -0.13627919E+02 -0.21145349E+01  0.00000000E+00
 Reciprocal Space Part
 -0.40989220E+02 -0.40730674E+02 -0.39957300E+02 -0.38675879E+02 -0.36897682E+02
 -0.34638430E+02 -0.31918221E+02 -0.28761443E+02 -0.25196652E+02 -0.21256424E+02
 -0.16977164E+02 -0.12398882E+02 -0.75649160E+01 -0.25216183E+01  0.26820177E+01
  0.79947748E+01  0.13363682E+02  0.18734531E+02  0.24052446E+02  0.29262480E+02
  0.34310260E+02  0.39142649E+02  0.43708430E+02  0.47958987E+02  0.51848992E+02
  0.55337062E+02  0.58386385E+02  0.60965307E+02  0.63047849E+02  0.64614157E+02
  0.65650868E+02  0.66151376E+02  0.66116000E+02  0.65552039E+02  0.64473706E+02
  0.62901952E+02  0.60864167E+02  0.58393766E+02  0.55529672E+02  0.52315684E+02
  0.48799774E+02  0.45033288E+02  0.41070095E+02  0.36965685E+02  0.32776244E+02
  0.28557714E+02  0.24364864E+02  0.20250390E+02  0.16264064E+02  0.12451944E+02
  0.88556669E+01  0.55118358E+01  0.24515143E+01 -0.30016236E+00 -0.27242526E+01
 -0.48081459E+01 -0.65455721E+01 -0.79364833E+01 -0.89868142E+01 -0.97081280E+01
 -0.10117158E+02 -0.10235256E+02 -0.10087769E+02 -0.97033449E+01 -0.91132018E+01
 -0.83503683E+01 -0.74489134E+01 -0.64431878E+01 -0.53670898E+01 -0.42533743E+01
 -0.31330182E+01 -0.20346555E+01 -0.98409188E+00 -0.39088175E-02  0.88683902E+00
  0.16728281E+01  0.23425723E+01  0.28884319E+01  0.33065310E+01  0.35965874E+01
  0.37616660E+01  0.38078626E+01  0.37439326E+01  0.35808737E+01  0.33314785E+01
  0.30098681E+01  0.26310210E+01  0.22103090E+01  0.17630532E+01  0.13041091E+01
  0.84749287E+00  0.40605336E+00 -0.88008617E-02 -0.38731704E+00 -0.72155285E+00
 -0.10054697E+01 -0.12349658E+01 -0.14078513E+01 -0.15237703E+01 -0.15840750E+01
 Real Space Part
  0.11205075E+04  0.11197125E+04  0.11173296E+04  0.11133645E+04  0.11078270E+04
  0.11007306E+04  0.10920924E+04  0.10819335E+04  0.10702784E+04  0.10571551E+04
  0.10425949E+04  0.10266325E+04  0.10093057E+04  0.99065513E+03  0.97072442E+03
  0.94955979E+03  0.92721002E+03  0.90372630E+03  0.87916205E+03  0.85357280E+03
  0.82701607E+03  0.79955121E+03  0.77123929E+03  0.74214301E+03  0.71232657E+03
  0.68185555E+03  0.65079688E+03  0.61921874E+03  0.58719047E+03  0.55478250E+03
  0.52206633E+03  0.48911447E+03  0.45600037E+03  0.42279836E+03  0.38958367E+03
  0.35643232E+03  0.32342108E+03  0.29062744E+03  0.25812952E+03  0.22600601E+03
  0.19433607E+03  0.16319923E+03  0.13267527E+03  0.10284408E+03  0.73785508E+02
  0.45579159E+02  0.18304186E+02 -0.79609449E+01 -0.33138724E+02 -0.57152895E+02
 -0.79928785E+02 -0.10139366E+03 -0.12147711E+03 -0.14011147E+03 -0.15723227E+03
 -0.17277867E+03 -0.18669401E+03 -0.19892625E+03 -0.20942855E+03 -0.21815976E+03
 -0.22508498E+03 -0.23017608E+03 -0.23341218E+03 -0.23478021E+03 -0.23427533E+03
 -0.23190137E+03 -0.22767119E+03 -0.22160703E+03 -0.21374074E+03 -0.20411398E+03
 -0.19277827E+03 -0.17979500E+03 -0.16523534E+03 -0.14918002E+03 -0.13171895E+03
 -0.11295063E+03 -0.92979974E+02 -0.71921725E+02 -0.50089573E+02 -0.30163288E+02
 -0.22465869E+02 -0.14233632E+02 -0.62401872E+01  0.13505371E+01  0.84279849E+01
  0.14881032E+02  0.20601583E+02  0.25487116E+02  0.29441226E+02  0.32374488E+02
  0.34205562E+02  0.34861214E+02  0.34277510E+02  0.32400019E+02  0.29184194E+02
  0.24591284E+02  0.18610019E+02  0.11322835E+02  0.17570716E+01  0.00000000E+00
 Non local Part
           1           2  0.809101009264628     
   1.22338271084671        3.52552832169747        3.52552832169747     
   8.35969593299738     
 Reciprocal Space Part
  0.00000000E+00  0.11231247E+01  0.22149003E+01  0.32448658E+01  0.41843119E+01
  0.50070978E+01  0.56903973E+01  0.62153550E+01  0.65676351E+01  0.67378465E+01
  0.67218342E+01  0.65208276E+01  0.61414432E+01  0.55955397E+01  0.48999315E+01
  0.40759661E+01  0.31489782E+01  0.21476348E+01  0.11031883E+01  0.48657770E-01
 -0.98203908E+00 -0.19549816E+01 -0.28371443E+01 -0.35972750E+01 -0.42067285E+01
 -0.46402350E+01 -0.48765833E+01 -0.48991997E+01 -0.46966092E+01 -0.42627669E+01
 -0.35972512E+01 -0.27053138E+01 -0.15977873E+01 -0.29085154E+00  0.11943331E+01
  0.28321165E+01  0.45929598E+01  0.64441303E+01  0.83504730E+01  0.10275238E+02
  0.12180941E+02  0.14030239E+02  0.15786794E+02  0.17416107E+02  0.18886299E+02
  0.20168821E+02  0.21239079E+02  0.22076955E+02  0.22667216E+02  0.22999797E+02
  0.23069966E+02  0.22878347E+02  0.22430829E+02  0.21738343E+02  0.20816529E+02
  0.19685297E+02  0.18368293E+02  0.16892300E+02  0.15286563E+02  0.13582090E+02
  0.11810914E+02  0.10005362E+02  0.81973301E+01  0.64175967E+01  0.46951761E+01
  0.30567388E+01  0.15261055E+01  0.12382445E+00 -0.11331567E+01 -0.22317224E+01
 -0.31627204E+01 -0.39209921E+01 -0.45053064E+01 -0.49182010E+01 -0.51657396E+01
 -0.52571932E+01 -0.52046579E+01 -0.50226200E+01 -0.47274837E+01 -0.43370725E+01
 -0.38701209E+01 -0.33457674E+01 -0.27830644E+01 -0.22005147E+01 -0.16156474E+01
 -0.10446413E+01 -0.50200334E+00 -0.30942804E-03  0.44999045E+00  0.84069946E+00
  0.11659341E+01  0.14221189E+01  0.16079196E+01  0.17241193E+01  0.17734445E+01
  0.17603482E+01  0.16907592E+01  0.15718050E+01  0.14115195E+01  0.12185426E+01
 Real Space Part
  0.00000000E+00  0.22347392E+02  0.44592127E+02  0.66631763E+02  0.88364286E+02
  0.10968835E+03  0.13050353E+03  0.15071061E+03  0.17021186E+03  0.18891146E+03
  0.20671580E+03  0.22353396E+03  0.23927818E+03  0.25386433E+03  0.26721248E+03
  0.27924747E+03  0.28989951E+03  0.29910482E+03  0.30680621E+03  0.31295380E+03
  0.31750559E+03  0.32042810E+03  0.32169697E+03  0.32129751E+03  0.31922522E+03
  0.31548619E+03  0.31009757E+03  0.30308779E+03  0.29449682E+03  0.28437628E+03
  0.27278944E+03  0.25981116E+03  0.24552765E+03  0.23003614E+03  0.21344445E+03
  0.19587041E+03  0.17744117E+03  0.15829236E+03  0.13856718E+03  0.11841535E+03
  0.97991951E+02  0.77456178E+02  0.56969996E+02  0.36696715E+02  0.16799498E+02
 -0.25601773E+01 -0.21224118E+02 -0.39039021E+02 -0.55858106E+02 -0.71542728E+02
 -0.85963972E+02 -0.99004205E+02 -0.11055856E+03 -0.12053634E+03 -0.12886231E+03
 -0.13547791E+03 -0.14034224E+03 -0.14343294E+03 -0.14474694E+03 -0.14430083E+03
 -0.14213126E+03 -0.13829486E+03 -0.13286811E+03 -0.12594679E+03 -0.11764531E+03
 -0.10809562E+03 -0.97445999E+02 -0.85859386E+02 -0.73511606E+02 -0.60589237E+02
 -0.47287263E+02 -0.33806490E+02 -0.20350764E+02 -0.71240061E+01  0.56728914E+01
  0.17845269E+02  0.29207983E+02  0.39588700E+02  0.48831149E+02  0.56798339E+02
  0.63375620E+02  0.68473540E+02  0.72030578E+02  0.74015504E+02  0.74429432E+02
  0.73307684E+02  0.70720931E+02  0.66776390E+02  0.61618030E+02  0.55426930E+02
  0.48420528E+02  0.40852114E+02  0.33009102E+02  0.25211647E+02  0.17810102E+02
  0.11182919E+02  0.57322710E+01  0.18762774E+01  0.12337662E+00  0.00000000E+00
 Reciprocal Space Part
  0.00000000E+00 -0.65122812E+00 -0.12811568E+01 -0.18691121E+01 -0.23956539E+01
 -0.28431498E+01 -0.31963004E+01 -0.34425989E+01 -0.35727149E+01 -0.35807901E+01
 -0.34646387E+01 -0.32258460E+01 -0.28697634E+01 -0.24053984E+01 -0.18452047E+01
 -0.12047750E+01 -0.50244720E+00  0.24116691E+00  0.10037171E+01  0.17617004E+01
  0.24910818E+01  0.31679318E+01  0.37690662E+01  0.42726687E+01  0.46588820E+01
  0.49103498E+01  0.50126968E+01  0.49549339E+01  0.47297773E+01  0.43338745E+01
  0.37679300E+01  0.30367291E+01  0.21490586E+01  0.11175268E+01 -0.41712411E-01
 -0.13093225E+01 -0.26632273E+01 -0.40791191E+01 -0.55310223E+01 -0.69918939E+01
 -0.84342487E+01 -0.98307925E+01 -0.11155045E+02 -0.12381942E+02 -0.13488395E+02
 -0.14453803E+02 -0.15260493E+02 -0.15894098E+02 -0.16343838E+02 -0.16602723E+02
 -0.16667659E+02 -0.16539462E+02 -0.16222776E+02 -0.15725912E+02 -0.15060593E+02
 -0.14241630E+02 -0.13286531E+02 -0.12215058E+02 -0.11048737E+02 -0.98103398E+01
 -0.85233548E+01 -0.72114488E+01 -0.58979433E+01 -0.46053134E+01 -0.33547217E+01
 -0.21655979E+01 -0.10552733E+01 -0.38677315E-01  0.87189848E+00  0.16669651E+01
  0.23399277E+01  0.28871047E+01  0.33076757E+01  0.36035634E+01  0.37792538E+01
  0.38415620E+01  0.37993518E+01  0.36632180E+01  0.34451410E+01  0.31581236E+01
  0.28158204E+01  0.24321690E+01  0.20210335E+01  0.15958685E+01  0.11694104E+01
  0.75340524E+00  0.35837579E+00 -0.65657744E-02 -0.33385809E+00 -0.61758173E+00
 -0.85350163E+00 -0.10390618E+01 -0.11733356E+01 -0.12569341E+01 -0.12918792E+01
 -0.12814443E+01 -0.12299720E+01 -0.11426716E+01 -0.10254064E+01 -0.88447508E+00
 Real Space Part
  0.00000000E+00 -0.15627899E+02 -0.31184172E+02 -0.46597318E+02 -0.61796099E+02
 -0.76709683E+02 -0.91267799E+02 -0.10540093E+03 -0.11904049E+03 -0.13211911E+03
 -0.14457085E+03 -0.15633152E+03 -0.16733898E+03 -0.17753356E+03 -0.18685835E+03
 -0.19525973E+03 -0.20268768E+03 -0.20909634E+03 -0.21444440E+03 -0.21869563E+03
 -0.22181930E+03 -0.22379065E+03 -0.22459137E+03 -0.22420994E+03 -0.22264212E+03
 -0.21989120E+03 -0.21596835E+03 -0.21089282E+03 -0.20469215E+03 -0.19740226E+03
 -0.18906748E+03 -0.17974050E+03 -0.16948224E+03 -0.15836164E+03 -0.14645532E+03
 -0.13384720E+03 -0.12062802E+03 -0.10689474E+03 -0.92749890E+02 -0.78300810E+02
 -0.63658829E+02 -0.48938364E+02 -0.34255946E+02 -0.19729194E+02 -0.54757352E+01
  0.83879173E+01  0.21747518E+02  0.34492265E+02  0.46515980E+02  0.57718292E+02
  0.68005799E+02  0.77293198E+02  0.85504376E+02  0.92573438E+02  0.98445656E+02
  0.10307835E+03  0.10644162E+03  0.10851902E+03  0.10930807E+03  0.10882057E+03
  0.10708289E+03  0.10413592E+03  0.10003497E+03  0.94849441E+02  0.88662268E+02
  0.81569200E+02  0.73677863E+02  0.65106626E+02  0.55983261E+02  0.46443420E+02
  0.36628925E+02  0.26685893E+02  0.16762710E+02  0.70078760E+01 -0.24322550E+01
 -0.11415811E+02 -0.19807794E+02 -0.27482481E+02 -0.34325803E+02 -0.40237683E+02
 -0.45134286E+02 -0.48950095E+02 -0.51639915E+02 -0.53180603E+02 -0.53572567E+02
 -0.52841138E+02 -0.51037408E+02 -0.48239111E+02 -0.44550782E+02 -0.40104030E+02
 -0.35056996E+02 -0.29593989E+02 -0.23924238E+02 -0.18280888E+02 -0.12919154E+02
 -0.81147905E+01 -0.41609126E+01 -0.13623369E+01 -0.89633026E-01  0.00000000E+00
 PAW radial sets
         399  0.708915279022620     
(5E20.12)                                
 augmentation charges (non sperical)
 -0.121506698485E+00 -0.148151609359E+00 -0.959422877975E-02 -0.824975807859E-02 -0.148151609359E+00
 -0.180656005013E+00 -0.114074884150E-01 -0.974711338580E-02 -0.959422877975E-02 -0.114074884150E-01
  0.116078392253E+00  0.185748354025E+00 -0.824975807859E-02 -0.974711338580E-02  0.185748354025E+00
  0.295826056226E+00
 uccopancies in atom
  0.200000000022E+01  0.000000000000E+00  0.000000000000E+00  0.000000000000E+00  0.000000000000E+00
  0.000000000000E+00  0.000000000000E+00  0.000000000000E+00  0.000000000000E+00  0.000000000000E+00
  0.999999999470E+00  0.000000000000E+00  0.000000000000E+00  0.000000000000E+00  0.000000000000E+00
  0.000000000000E+00
 grid
  0.280527516333E-04  0.289225357721E-04  0.298192878340E-04  0.307438439676E-04  0.316970662468E-04
  0.326798434741E-04  0.336930920097E-04  0.347377566259E-04  0.358148113878E-04  0.369252605618E-04
  0.380701395518E-04  0.392505158649E-04  0.404674901063E-04  0.417221970061E-04  0.430158064768E-04
  0.443495247045E-04  0.457245952736E-04  0.471423003259E-04  0.486039617567E-04  0.501109424469E-04
  0.516646475341E-04  0.532665257223E-04  0.549180706334E-04  0.566208221993E-04  0.583763680979E-04
  0.601863452337E-04  0.620524412639E-04  0.639763961718E-04  0.659600038897E-04  0.680051139712E-04
  0.701136333158E-04  0.722875279473E-04  0.745288248462E-04  0.768396138405E-04  0.792220495539E-04
  0.816783534148E-04  0.842108157277E-04  0.868217978087E-04  0.895137341871E-04  0.922891348757E-04
  0.951505877110E-04  0.981007607661E-04  0.101142404838E-03  0.104278356015E-03  0.107511538316E-03
  0.110844966423E-03  0.114281748487E-03  0.117825089030E-03  0.121478291928E-03  0.125244763500E-03
  0.129128015674E-03  0.133131669268E-03  0.137259457366E-03  0.141515228795E-03  0.145902951719E-03
  0.150426717332E-03  0.155090743682E-03  0.159899379594E-03  0.164857108732E-03  0.169968553777E-03
  0.175238480738E-03  0.180671803396E-03  0.186273587883E-03  0.192049057411E-03  0.198003597136E-03
  0.204142759186E-03  0.210472267831E-03  0.216998024827E-03  0.223726114913E-03  0.230662811488E-03
  0.237814582461E-03  0.245188096279E-03  0.252790228147E-03  0.260628066437E-03  0.268708919298E-03
  0.277040321473E-03  0.285630041319E-03  0.294486088053E-03  0.303616719224E-03  0.313030448405E-03
  0.322736053137E-03  0.332742583110E-03  0.343059368603E-03  0.353696029184E-03  0.364662482677E-03
  0.375968954412E-03  0.387625986760E-03  0.399644448959E-03  0.412035547251E-03  0.424810835334E-03
  0.437982225128E-03  0.451561997889E-03  0.465562815655E-03  0.479997733055E-03  0.494880209481E-03
  0.510224121638E-03  0.526043776481E-03  0.542353924558E-03  0.559169773761E-03  0.576507003509E-03
  0.594381779364E-03  0.612810768108E-03  0.631811153281E-03  0.651400651203E-03  0.671597527497E-03
  0.692420614113E-03  0.713889326894E-03  0.736023683677E-03  0.758844322957E-03  0.782372523134E-03
  0.806630222348E-03  0.831640038941E-03  0.857425292542E-03  0.884010025812E-03  0.911419026863E-03
  0.939677852369E-03  0.968812851398E-03  0.998851189976E-03  0.102982087642E-02  0.106175078746E-02
  0.109467069516E-02  0.112861129465E-02  0.116360423281E-02  0.119968213770E-02  0.123687864907E-02
  0.127522844964E-02  0.131476729750E-02  0.135553205942E-02  0.139756074525E-02  0.144089254332E-02
  0.148556785704E-02  0.153162834252E-02  0.157911694742E-02  0.162807795104E-02  0.167855700554E-02
  0.173060117855E-02  0.178425899706E-02  0.183958049263E-02  0.189661724807E-02  0.195542244556E-02
  0.201605091616E-02  0.207855919103E-02  0.214300555407E-02  0.220945009629E-02  0.227795477185E-02
  0.234858345582E-02  0.242140200372E-02  0.249647831295E-02  0.257388238610E-02  0.265368639620E-02
  0.273596475402E-02  0.282079417747E-02  0.290825376313E-02  0.299842505997E-02  0.309139214544E-02
  0.318724170380E-02  0.328606310702E-02  0.338794849805E-02  0.349299287677E-02  0.360129418856E-02
  0.371295341562E-02  0.382807467115E-02  0.394676529639E-02  0.406913596075E-02  0.419530076495E-02
  0.432537734748E-02  0.445948699420E-02  0.459775475151E-02  0.474030954290E-02  0.488728428917E-02
  0.503881603237E-02  0.519504606359E-02  0.535612005467E-02  0.552218819408E-02  0.569340532692E-02
  0.586993109928E-02  0.605193010718E-02  0.623957204995E-02  0.643303188850E-02  0.663249000848E-02
  0.683813238844E-02  0.705015077324E-02  0.726874285286E-02  0.749411244673E-02  0.772646969374E-02
  0.796603124822E-02  0.821302048191E-02  0.846766769229E-02  0.873021031726E-02  0.900089315657E-02
  0.927996860004E-02  0.956769686293E-02  0.986434622857E-02  0.101701932985E-01  0.104855232502E-01
  0.108106301035E-01  0.111458169942E-01  0.114913964569E-01  0.118476907164E-01  0.122150319883E-01
  0.125937627887E-01  0.129842362533E-01  0.133868164670E-01  0.138018788033E-01  0.142298102742E-01
  0.146710098911E-01  0.151258890370E-01  0.155948718499E-01  0.160783956182E-01  0.165769111888E-01
  0.170908833870E-01  0.176207914503E-01  0.181671294750E-01  0.187304068773E-01  0.193111488675E-01
  0.199098969406E-01  0.205272093808E-01  0.211636617819E-01  0.218198475842E-01  0.224963786278E-01
  0.231938857233E-01  0.239130192394E-01  0.246544497100E-01  0.254188684590E-01  0.262069882449E-01
  0.270195439257E-01  0.278572931437E-01  0.287210170323E-01  0.296115209441E-01  0.305296352018E-01
  0.314762158727E-01  0.324521455667E-01  0.334583342591E-01  0.344957201394E-01  0.355652704861E-01
  0.366679825681E-01  0.378048845754E-01  0.389770365768E-01  0.401855315093E-01  0.414314961966E-01
  0.427160923999E-01  0.440405179010E-01  0.454060076197E-01  0.468138347644E-01  0.482653120201E-01
  0.497617927717E-01  0.513046723665E-01  0.528953894146E-01  0.545354271311E-01  0.562263147182E-01
  0.579696287918E-01  0.597669948511E-01  0.616200887945E-01  0.635306384819E-01  0.655004253464E-01
  0.675312860547E-01  0.696251142200E-01  0.717838621675E-01  0.740095427550E-01  0.763042312493E-01
  0.786700672619E-01  0.811092567431E-01  0.836240740397E-01  0.862168640153E-01  0.888900442366E-01
  0.916461072276E-01  0.944876227942E-01  0.974172404194E-01  0.100437691734E+00  0.103551793066E+00
  0.106762448061E+00  0.110072650395E+00  0.113485486565E+00  0.117004138763E+00  0.120631887848E+00
  0.124372116402E+00  0.128228311886E+00  0.132204069889E+00  0.136303097485E+00  0.140529216684E+00
  0.144886368000E+00  0.149378614125E+00  0.154010143714E+00  0.158785275294E+00  0.163708461288E+00
  0.168784292168E+00  0.174017500736E+00  0.179412966535E+00  0.184975720401E+00  0.190710949150E+00
  0.196624000420E+00  0.202720387652E+00  0.209005795233E+00  0.215486083798E+00  0.222167295690E+00
  0.229055660599E+00  0.236157601368E+00  0.243479739980E+00  0.251028903739E+00  0.258812131627E+00
  0.266836680875E+00  0.275110033725E+00  0.283639904409E+00  0.292434246341E+00  0.301501259532E+00
  0.310849398238E+00  0.320487378843E+00  0.330424187982E+00  0.340669090926E+00  0.351231640216E+00
  0.362121684576E+00  0.373349378090E+00  0.384925189674E+00  0.396859912833E+00  0.409164675732E+00
  0.421850951565E+00  0.434930569259E+00  0.448415724497E+00  0.462318991095E+00  0.476653332723E+00
  0.491432114994E+00  0.506669117928E+00  0.522378548794E+00  0.538575055366E+00  0.555273739575E+00
  0.572490171592E+00  0.590240404346E+00  0.608540988491E+00  0.627408987842E+00  0.646861995280E+00
  0.666918149159E+00  0.687596150219E+00  0.708915279023E+00  0.730895413931E+00  0.753557049641E+00
  0.776921316292E+00  0.801009999172E+00  0.825845559028E+00  0.851451153008E+00  0.877850656256E+00
  0.905068684171E+00  0.933130615361E+00  0.962062615304E+00  0.991891660749E+00  0.102264556487E+01
  0.105435300318E+01  0.108704354031E+01  0.112074765754E+01  0.115549678122E+01  0.119132331210E+01
  0.122826065552E+01  0.126634325257E+01  0.130560661218E+01  0.134608734425E+01  0.138782319380E+01
  0.143085307611E+01  0.147521711308E+01  0.152095667058E+01  0.156811439704E+01  0.161673426321E+01
  0.166686160321E+01  0.171854315669E+01  0.177182711255E+01  0.182676315374E+01  0.188340250367E+01
  0.194179797397E+01  0.200200401367E+01  0.206407676003E+01  0.212807409087E+01  0.219405567851E+01
  0.226208304544E+01  0.233221962168E+01  0.240453080390E+01  0.247908401643E+01  0.255594877409E+01
  0.263519674707E+01  0.271690182767E+01  0.280114019927E+01  0.288799040732E+01  0.297753343262E+01
  0.306985276680E+01  0.316503449014E+01  0.326316735191E+01  0.336434285306E+01  0.346865533154E+01
  0.357620205030E+01  0.368708328794E+01  0.380140243226E+01  0.391926607658E+01  0.404078411922E+01
  0.416606986592E+01  0.429524013548E+01  0.442841536874E+01  0.456571974080E+01  0.470728127689E+01
  0.485323197168E+01  0.500370791237E+01  0.515884940559E+01  0.531880110823E+01
 aepotential
  0.363644682247E+05  0.353487416706E+05  0.343218994995E+05  0.332874444338E+05  0.322492400225E+05
  0.312117418979E+05  0.301780275742E+05  0.291515120221E+05  0.281355701014E+05  0.271326677666E+05
  0.261455362744E+05  0.251761744466E+05  0.242266614051E+05  0.232986148873E+05  0.223934581517E+05
  0.215123434150E+05  0.206562124034E+05  0.198257551850E+05  0.190214912190E+05  0.182437354012E+05
  0.174926412683E+05  0.167682089012E+05  0.160703026727E+05  0.153986696739E+05  0.147529457178E+05
  0.141326945858E+05  0.135373749937E+05  0.129664283631E+05  0.124191682409E+05  0.118949864823E+05
  0.113930896964E+05  0.109128288476E+05  0.104533937975E+05  0.100140762037E+05  0.959407610545E+04
  0.919266419585E+04  0.880912587447E+04  0.844266666875E+04  0.809257804644E+04  0.775821494956E+04
  0.743880725762E+04  0.713376718388E+04  0.684239598311E+04  0.656410751195E+04  0.629826616677E+04
  0.604433537324E+04  0.580173396356E+04  0.556992903385E+04  0.534844825234E+04  0.513676849927E+04
  0.493444232967E+04  0.474102075770E+04  0.455608033392E+04  0.437921615343E+04  0.421006720150E+04
  0.404823768918E+04  0.389340654465E+04  0.374520075028E+04  0.360334332964E+04  0.346756458209E+04
  0.333746920786E+04  0.321293097421E+04  0.309357648591E+04  0.297921320000E+04  0.286960400430E+04
  0.276454697462E+04  0.266379117974E+04  0.256715857659E+04  0.247448165241E+04  0.238555779224E+04
  0.230020878365E+04  0.221828597864E+04  0.213964701754E+04  0.206411269629E+04  0.199157762385E+04
  0.192189284723E+04  0.185492693728E+04  0.179057785600E+04  0.172871416363E+04  0.166924381454E+04
  0.161204904442E+04  0.155704450397E+04  0.150411721562E+04  0.145321232766E+04  0.140420803139E+04
  0.135704335172E+04  0.131163502413E+04  0.126791907021E+04  0.122581697826E+04  0.118525977529E+04
  0.114619060503E+04  0.110854625082E+04  0.107227597939E+04  0.103730229655E+04  0.100360002578E+04
  0.971106622423E+03  0.939763723548E+03  0.909545672905E+03  0.880393077063E+03  0.852270716517E+03
  0.825135424449E+03  0.798951259846E+03  0.773681748520E+03  0.749290413740E+03  0.725741193258E+03
  0.703006522257E+03  0.681052369598E+03  0.659851797879E+03  0.639374128283E+03  0.619593371624E+03
  0.600483397054E+03  0.582019904854E+03  0.564177027826E+03  0.546934865898E+03  0.530268765892E+03
  0.514159527799E+03  0.498585937261E+03  0.483528647889E+03  0.468969625663E+03  0.454890306476E+03
  0.441274378511E+03  0.428103286791E+03  0.415363079843E+03  0.403039233956E+03  0.391114281210E+03
  0.379577112064E+03  0.368411501947E+03  0.357605613714E+03  0.347148007624E+03  0.337024744195E+03
  0.327224857559E+03  0.317737313866E+03  0.308551043175E+03  0.299656208017E+03  0.291042438663E+03
  0.282699731175E+03  0.274619287462E+03  0.266792205917E+03  0.259209477209E+03  0.251862834791E+03
  0.244744433327E+03  0.237846626851E+03  0.231161553649E+03  0.224682246817E+03  0.218401783471E+03
  0.212313235299E+03  0.206410401255E+03  0.200686705093E+03  0.195136328691E+03  0.189753271044E+03
  0.184532049878E+03  0.179467020718E+03  0.174552996299E+03  0.169784929800E+03  0.165157750677E+03
  0.160666811307E+03  0.156307455179E+03  0.152075188114E+03  0.147965704029E+03  0.143974852057E+03
  0.140098600399E+03  0.136332809852E+03  0.132674144684E+03  0.129118393670E+03  0.125662499916E+03
  0.122302563270E+03  0.119035516892E+03  0.115858059860E+03  0.112767014638E+03  0.109759315829E+03
  0.106832102237E+03  0.103982390852E+03  0.101207487954E+03  0.985046210266E+02  0.958712337914E+02
  0.933046967933E+02  0.908025978674E+02  0.883625288383E+02  0.859821528780E+02  0.836591391493E+02
  0.813913594237E+02  0.791766176932E+02  0.770128572658E+02  0.748980070893E+02  0.728301291303E+02
  0.708072615360E+02  0.688275647727E+02  0.668891858207E+02  0.649903532722E+02  0.631293420475E+02
  0.613044552230E+02  0.595140387381E+02  0.577565072790E+02  0.560302690858E+02  0.543338184627E+02
  0.526656454509E+02  0.510243090430E+02  0.494083767439E+02  0.478164701677E+02  0.462472266708E+02
  0.446993332654E+02  0.431714741504E+02  0.416624274742E+02  0.401709143645E+02  0.386957680869E+02
  0.372357697734E+02  0.357898081006E+02  0.343567312566E+02  0.329354442610E+02  0.315248860564E+02
  0.301239875381E+02  0.287317346571E+02  0.273471220025E+02  0.259691724322E+02  0.245969288767E+02
  0.232294582664E+02  0.218658580321E+02  0.205052314900E+02  0.191467187953E+02  0.177894776579E+02
  0.164326873891E+02  0.150755539155E+02  0.137172948397E+02  0.123571639974E+02  0.109944320853E+02
  0.962838541045E+01  0.825834551856E+01  0.688364994680E+01  0.550365955949E+01  0.411776095861E+01
  0.272536462678E+01  0.132590449240E+01 -0.811611237080E-01 -0.149634805889E+01 -0.292014624475E+01
 -0.435302113079E+01 -0.579541125108E+01 -0.724772649713E+01 -0.871035342334E+01 -0.101836467483E+02
 -0.116679335512E+02 -0.131635146559E+02 -0.146706573719E+02 -0.161896006967E+02 -0.177205521151E+02
 -0.192636874310E+02 -0.208191490020E+02 -0.223870457351E+02 -0.239674519012E+02 -0.255604048061E+02
 -0.271659054058E+02 -0.287839142952E+02 -0.304143518026E+02 -0.320570942843E+02 -0.337119729797E+02
 -0.353787693970E+02 -0.370572129372E+02 -0.387469757046E+02 -0.404476680153E+02 -0.421588320648E+02
 -0.438799345326E+02 -0.456103584052E+02 -0.473493929670E+02 -0.490962213142E+02 -0.508499075859E+02
 -0.526093802337E+02 -0.543734137380E+02 -0.561406077430E+02 -0.579093634126E+02 -0.596778570927E+02
 -0.614440122636E+02 -0.632054693090E+02 -0.649595555124E+02 -0.667032556601E+02 -0.684331865848E+02
 -0.701455782694E+02 -0.718362659770E+02 -0.735006983686E+02 -0.751339678176E+02 -0.767308697731E+02
 -0.782859986697E+02 -0.797938880338E+02 -0.812492023659E+02 -0.826469881328E+02 -0.839829912972E+02
 -0.852540493200E+02 -0.864585674264E+02 -0.875970895116E+02 -0.886729695437E+02 -0.896931276911E+02
 -0.906688136179E+02 -0.916161617852E+02 -0.925560700321E+02 -0.935125587284E+02 -0.945084005548E+02
 -0.955568566820E+02 -0.966495566929E+02 -0.977435754195E+02 -0.987548957575E+02 -0.995673585401E+02
 -0.100061379846E+03 -0.100154992325E+03 -0.998385175860E+02 -0.991826925454E+02 -0.983122582005E+02
 -0.973581436896E+02 -0.964160585281E+02 -0.955317699989E+02 -0.947111141203E+02 -0.939390881949E+02
 -0.931953469543E+02 -0.924622717305E+02 -0.917274073771E+02 -0.909830060807E+02 -0.902246338886E+02
 -0.894498049634E+02 -0.886569508584E+02 -0.878448123883E+02 -0.870121333309E+02 -0.861575897491E+02
 -0.852798265131E+02 -0.843775483315E+02 -0.834496262855E+02 -0.824951686059E+02 -0.815135855842E+02
 -0.805046166180E+02 -0.794683496524E+02 -0.784052059023E+02 -0.773159303477E+02 -0.762015691304E+02
 -0.750634350400E+02 -0.739030828065E+02 -0.727222711947E+02 -0.715229330546E+02 -0.703071375873E+02
 -0.690770573444E+02 -0.678349367499E+02 -0.665830513997E+02 -0.653236791265E+02 -0.640590656940E+02
 -0.627913868676E+02 -0.615227227132E+02 -0.602550215233E+02 -0.589900761191E+02 -0.577295002498E+02
 -0.564747132155E+02 -0.552269326439E+02 -0.539871781594E+02 -0.527562866405E+02 -0.515349396867E+02
 -0.503237019290E+02 -0.491230679775E+02 -0.479335146096E+02 -0.467555482868E+02 -0.455897587322E+02
 -0.444368476562E+02 -0.432976556180E+02 -0.421731693520E+02 -0.410645145245E+02 -0.399729343717E+02
 -0.388997564336E+02 -0.378463502098E+02 -0.368140787624E+02 -0.358042472639E+02 -0.348180513137E+02
 -0.338565277674E+02 -0.329205107111E+02 -0.320105952759E+02 -0.311271118111E+02 -0.302701126510E+02
 -0.294393729592E+02 -0.286344060614E+02 -0.278544923014E+02 -0.270987190485E+02 -0.263660283296E+02
 -0.256552678991E+02 -0.249652415141E+02 -0.242947547304E+02 -0.236426534972E+02 -0.230078539946E+02
 -0.223893632855E+02 -0.217862912838E+02 -0.211978551883E+02 -0.206233778781E+02 -0.200622818571E+02
 -0.195140802427E+02 -0.189783660815E+02 -0.184548010177E+02 -0.179431040713E+02 -0.174430410447E+02
 -0.169544148739E+02 -0.164770570862E+02 -0.160108204113E+02 -0.155555725167E+02 -0.151111907893E+02
 -0.146775580634E+02 -0.142545591814E+02 -0.138420782774E+02 -0.134399966805E+02
 core charge-density
  0.378166382033E-05  0.401938218526E-05  0.427204063063E-05  0.454057781232E-05  0.482599133249E-05
  0.512934143848E-05  0.545175495397E-05  0.579442945618E-05  0.615863771496E-05  0.654573241029E-05
  0.695715114492E-05  0.739442177149E-05  0.785916805303E-05  0.835311567821E-05  0.887809865318E-05
  0.943606609378E-05  0.100290894428E-04  0.106593701395E-04  0.113292477686E-04  0.120412087194E-04
  0.127978953877E-04  0.136021159518E-04  0.144568547612E-04  0.153652833747E-04  0.163307722892E-04
  0.173569034008E-04  0.184474832458E-04  0.196065570691E-04  0.208384237714E-04  0.221476517906E-04
  0.235390959747E-04  0.250179155092E-04  0.265895929631E-04  0.282599545242E-04  0.300351914967E-04
  0.319218831414E-04  0.339270209390E-04  0.360580343676E-04  0.383228182867E-04  0.407297620288E-04
  0.432877803026E-04  0.460063460226E-04  0.488955251816E-04  0.519660138961E-04  0.552291777549E-04
  0.586970936191E-04  0.623825940175E-04  0.662993143062E-04  0.704617427578E-04  0.748852737606E-04
  0.795862643255E-04  0.845820940975E-04  0.898912290922E-04  0.955332893873E-04  0.101529121008E-03
  0.107900872272E-03  0.114672074856E-03  0.121867729890E-03  0.129514399378E-03  0.137640303265E-03
  0.146275422513E-03  0.155451608552E-03  0.165202699464E-03  0.175564643377E-03  0.186575629429E-03
  0.198276226838E-03  0.210709532514E-03  0.223921327783E-03  0.237960244726E-03  0.252877942766E-03
  0.268729296092E-03  0.285572592595E-03  0.303469745000E-03  0.322486514935E-03  0.342692750750E-03
  0.364162639841E-03  0.386974976441E-03  0.411213445752E-03  0.436966925402E-03  0.464329805310E-03
  0.493402326995E-03  0.524290943565E-03  0.557108701540E-03  0.591975645917E-03  0.629019249703E-03
  0.668374869566E-03  0.710186228970E-03  0.754605930538E-03  0.801795999305E-03  0.851928458715E-03
  0.905185941277E-03  0.961762335898E-03  0.102186347405E-02  0.108570785700E-02  0.115352742669E-02
  0.122556838235E-02  0.130209204600E-02  0.138337577946E-02  0.146971395559E-02  0.156141898734E-02
  0.165882241745E-02  0.176227607267E-02  0.187215328581E-02  0.198885018963E-02  0.211278708663E-02
  0.224440989904E-02  0.238419170316E-02  0.253263435332E-02  0.269027019979E-02  0.285766390639E-02
  0.303541437281E-02  0.322415676765E-02  0.342456467803E-02  0.363735238222E-02  0.386327725157E-02
  0.410314228912E-02  0.435779881160E-02  0.462814928284E-02  0.491515030611E-02  0.521981578385E-02
  0.554322025343E-02  0.588650240763E-02  0.625086880961E-02  0.663759781181E-02  0.704804368872E-02
  0.748364099484E-02  0.794590915748E-02  0.843645731705E-02  0.895698942556E-02  0.950930961565E-02
  0.100953278533E-01  0.107170658861E-01  0.113766635009E-01  0.120763851046E-01  0.128186266416E-01
  0.136059228624E-01  0.144409549583E-01  0.153265585765E-01  0.162657322302E-01  0.172616461211E-01
  0.183176513872E-01  0.194372897925E-01  0.206243038743E-01  0.218826475632E-01  0.232164972909E-01
  0.246302636011E-01  0.261286032777E-01  0.277164320051E-01  0.293989375739E-01  0.311815936432E-01
  0.330701740746E-01  0.350707678441E-01  0.371897945453E-01  0.394340204890E-01  0.418105754040E-01
  0.443269697467E-01  0.469911126159E-01  0.498113302737E-01  0.527963852673E-01  0.559554961426E-01
  0.592983577374E-01  0.628351620343E-01  0.665766195620E-01  0.705339812944E-01  0.747190610461E-01
  0.791442582858E-01  0.838225813587E-01  0.887676710248E-01  0.939938242705E-01  0.995160183126E-01
  0.105349934702E+00  0.111511983431E+00  0.118019326943E+00  0.124889903896E+00  0.132142452569E+00
  0.139796533724E+00  0.147872552780E+00  0.156391781074E+00  0.165376376027E+00  0.174849399952E+00
  0.184834837276E+00  0.195357609862E+00  0.206443590153E+00  0.218119611785E+00  0.230413477316E+00
  0.243353962671E+00  0.256970817891E+00  0.271294763709E+00  0.286357483495E+00  0.302191610014E+00
  0.318830706458E+00  0.336309241148E+00  0.354662555287E+00  0.373926823069E+00  0.394139003478E+00
  0.415336783001E+00  0.437558508511E+00  0.460843109485E+00  0.485230008756E+00  0.510759020889E+00
  0.537470237345E+00  0.565403897453E+00  0.594600244395E+00  0.625099365069E+00  0.656941013160E+00
  0.690164414236E+00  0.724808052229E+00  0.760909436140E+00  0.798504846459E+00  0.837629060264E+00
  0.878315054434E+00  0.920593686416E+00  0.964493351935E+00  0.101003961941E+01  0.105725484080E+01
  0.110615773899E+01  0.115676297176E+01  0.120908067294E+01  0.126311597140E+01  0.131886848887E+01
  0.137633181810E+01  0.143549298288E+01  0.149633188228E+01  0.155882072160E+01  0.162292343312E+01
  0.168859509021E+01  0.175578131908E+01  0.182441771261E+01  0.189442925190E+01  0.196572974121E+01
  0.203822126300E+01  0.211179366026E+01  0.218632405404E+01  0.226167640462E+01  0.233770112556E+01
  0.241423476017E+01  0.249109973095E+01  0.256810417249E+01  0.264504185891E+01  0.272169223770E+01
  0.279782058098E+01  0.287317826622E+01  0.294750319794E+01  0.302052038126E+01  0.309194265834E+01
  0.316147161750E+01  0.322879868398E+01  0.329360639986E+01  0.335556989951E+01  0.341435858459E+01
  0.346963800072E+01  0.352107191546E+01  0.356832459415E+01  0.361106326753E+01  0.364896078101E+01
  0.368169841240E+01  0.370896884034E+01  0.373047924212E+01  0.374595449491E+01  0.375514045000E+01
  0.375780724585E+01  0.375375262056E+01  0.374280518108E+01  0.372482758235E+01  0.369971956582E+01
  0.366742080477E+01  0.362791350065E+01  0.358122467419E+01  0.352742809383E+01  0.346664578542E+01
  0.339904906809E+01  0.332485906544E+01  0.324434664476E+01  0.315783174407E+01  0.306568205376E+01
  0.296831102944E+01  0.286617522329E+01  0.275977093367E+01  0.264963018647E+01  0.253631607696E+01
  0.242041751637E+01  0.230254344397E+01  0.218331658191E+01  0.206336682552E+01  0.194332437627E+01
  0.182381273964E+01  0.170544171357E+01  0.158880050898E+01  0.147445113992E+01  0.136292222218E+01
  0.125470331142E+01  0.115023989838E+01  0.104992915524E+01  0.954116491950E+00  0.863092930960E+00
  0.777093246636E+00  0.696294757196E+00  0.620816638371E+00  0.550719698884E+00  0.486006745858E+00
  0.426623917033E+00  0.372463504423E+00  0.323368663451E+00  0.279139964659E+00  0.239543195318E+00
  0.204317468720E+00  0.173182769535E+00  0.145846494454E+00  0.122009020997E+00  0.101368570371E+00
  0.836255979111E-01  0.684868027987E-01  0.556687341024E-01  0.449009230101E-01  0.359284741784E-01
  0.285140747574E-01  0.224394102838E-01  0.175060040752E-01  0.135355187642E-01  0.103695748809E-01
  0.786915263364E-02  0.591364976933E-02  0.439967124581E-02  0.323962579980E-02  0.236020086205E-02
  0.170078111719E-02  0.121186793030E-02  0.853547475325E-03  0.594045348017E-03  0.408395333890E-03
  0.277240370311E-03  0.185775025615E-03  0.122831331298E-03  0.801037316694E-04  0.515043219388E-04
  0.326363886311E-04  0.203724169086E-04  0.125220019327E-04  0.757527515406E-05  0.450830130131E-05
  0.263819761430E-05  0.151727715932E-05  0.857160605918E-06  0.475410303565E-06  0.258729670345E-06
  0.138086057402E-06  0.722314610159E-07  0.370096600223E-07  0.185629494615E-07  0.910845686849E-08
  0.436940952226E-08  0.204779353782E-08  0.936982076507E-09  0.418258591348E-09  0.182013624740E-09
  0.771569668921E-10  0.318357285543E-10  0.127752079609E-10  0.498159427524E-11  0.188598229330E-11
  0.692604025446E-12  0.246494315584E-12  0.849349193704E-13  0.283068968066E-13  0.911548357493E-14
  0.283327531106E-14  0.849071924741E-15  0.245050923468E-15  0.680327475072E-16  0.181470860207E-16
  0.464498000278E-17  0.113944347556E-17  0.267522527865E-18  0.600337636740E-19  0.128584722925E-19
  0.262490886242E-20  0.509945345871E-21  0.941350985564E-22  0.164858752089E-22  0.273462739426E-23
  0.428925577688E-24  0.635057769142E-25  0.885970233932E-26  0.116252745537E-26  0.143200576541E-27
  0.165271484844E-28  0.178357309896E-29  0.179607775786E-30  0.168412510742E-31  0.146718129219E-32
  0.118486592989E-33  0.884944603632E-35  0.609787577708E-36  0.386703975621E-37  0.225115334046E-38
  0.119981026466E-39  0.583876096058E-41  0.258709833632E-42  0.104072434120E-43
 kinetic energy-density
  0.532956018166E-01  0.540203856969E-01  0.547720725133E-01  0.555514721754E-01  0.563599445251E-01
  0.571986195198E-01  0.580687284981E-01  0.589718771247E-01  0.599093557332E-01  0.608828377130E-01
  0.618938244556E-01  0.629440654135E-01  0.640353821697E-01  0.651696582464E-01  0.663488774905E-01
  0.675751610302E-01  0.688506662078E-01  0.701777564928E-01  0.715588319379E-01  0.729964639909E-01
  0.744933405836E-01  0.760522916367E-01  0.776762900206E-01  0.793684721750E-01  0.811321158098E-01
  0.829707040860E-01  0.848878557921E-01  0.868874462016E-01  0.889734902702E-01  0.911502279551E-01
  0.934221862700E-01  0.957940243824E-01  0.982707663792E-01  0.100857651737E+00  0.103560187444E+00
  0.106384175812E+00  0.109335805687E+00  0.112421592746E+00  0.115648280065E+00  0.119023129031E+00
  0.122553757149E+00  0.126248183035E+00  0.130114928398E+00  0.134162922739E+00  0.138401590699E+00
  0.142841046045E+00  0.147491751605E+00  0.152364810923E+00  0.157472113068E+00  0.162826034994E+00
  0.168439847465E+00  0.174327369697E+00  0.180503326804E+00  0.186983294538E+00  0.193783659305E+00
  0.200921941351E+00  0.208416473348E+00  0.216286732714E+00  0.224553197643E+00  0.233237912666E+00
  0.242363616333E+00  0.251955029695E+00  0.262037712616E+00  0.272639209985E+00  0.283788105858E+00
  0.295515450067E+00  0.307853413531E+00  0.320836321703E+00  0.334500451319E+00  0.348884567174E+00
  0.364029207508E+00  0.379977558194E+00  0.396775368239E+00  0.414470994396E+00  0.433115792935E+00
  0.452764050608E+00  0.473473301846E+00  0.495304548609E+00  0.518322274007E+00  0.542595028522E+00
  0.568195239989E+00  0.595199888595E+00  0.623689875623E+00  0.653752244744E+00  0.685477807917E+00
  0.718963599636E+00  0.754312160163E+00  0.791632286577E+00  0.831039548316E+00  0.872655644004E+00
  0.916610380751E+00  0.963040642432E+00  0.101209231707E+01  0.106391913599E+01  0.111868441391E+01
  0.117656172327E+01  0.123773412039E+01  0.130239592539E+01  0.137075400042E+01  0.144302579483E+01
  0.151944359259E+01  0.160025189907E+01  0.168571156046E+01  0.177609758624E+01  0.187170219814E+01
  0.197283460186E+01  0.207982284413E+01  0.219301431683E+01  0.231277714911E+01  0.243950174308E+01
  0.257360080968E+01  0.271551315292E+01  0.286570178728E+01  0.302465897332E+01  0.319290504453E+01
  0.337099154365E+01  0.355950295500E+01  0.375905786268E+01  0.397031170957E+01  0.419395852035E+01
  0.443073352279E+01  0.468141517322E+01  0.494682569234E+01  0.522784040998E+01  0.552538011049E+01
  0.584042428695E+01  0.617400693146E+01  0.652722228433E+01  0.690123009595E+01  0.729725617644E+01
  0.771659798084E+01  0.816062648191E+01  0.863079430597E+01  0.912863531629E+01  0.965577393391E+01
  0.102139250593E+02  0.108049032111E+02  0.114306262181E+02  0.120931204334E+02  0.127945271836E+02
  0.135371079702E+02  0.143232537091E+02  0.151554870356E+02  0.160364726470E+02  0.169690241146E+02
  0.179561098836E+02  0.190008634973E+02  0.201065902870E+02  0.212767768955E+02  0.225150994037E+02
  0.238254348552E+02  0.252118675916E+02  0.266787031576E+02  0.282304756430E+02  0.298719611202E+02
  0.316081864983E+02  0.334444438524E+02  0.353863001032E+02  0.374396100069E+02  0.396105308565E+02
  0.419055325941E+02  0.443314111197E+02  0.468953089818E+02  0.496047162433E+02  0.524675006793E+02
  0.554919053794E+02  0.586865818270E+02  0.620605847008E+02  0.656234072449E+02  0.693849780237E+02
  0.733556888848E+02  0.775464052180E+02  0.819684758541E+02  0.866337584137E+02  0.915546219702E+02
  0.967439695080E+02  0.102215242406E+03  0.107982442141E+03  0.114060134977E+03  0.120463462567E+03
  0.127208152170E+03  0.134310526416E+03  0.141787504837E+03  0.149656610481E+03  0.157935969889E+03
  0.166644314206E+03  0.175800974162E+03  0.185425875427E+03  0.195539524070E+03  0.206162999706E+03
  0.217317931554E+03  0.229026478569E+03  0.241311303194E+03  0.254195534633E+03  0.267702733657E+03
  0.281856847267E+03  0.296682151643E+03  0.312203199816E+03  0.328444747811E+03  0.345431680989E+03
  0.363188930528E+03  0.381741367671E+03  0.401113721384E+03  0.421330432155E+03  0.442415541722E+03
  0.464392563948E+03  0.487284288107E+03  0.511112682662E+03  0.535898640335E+03  0.561661843927E+03
  0.588420533443E+03  0.616191274816E+03  0.644988758614E+03  0.674825503508E+03  0.705711635918E+03
  0.737654570303E+03  0.770658751022E+03  0.804725319729E+03  0.839851806320E+03  0.876031801192E+03
  0.913254611700E+03  0.951504910055E+03  0.990762390043E+03  0.103100138199E+04  0.107219052991E+04
  0.111429239501E+04  0.115726311000E+04  0.120105205271E+04  0.124560147184E+04  0.129084620111E+04
  0.133671333892E+04  0.138312198887E+04  0.142998301218E+04  0.147719882965E+04  0.152466326091E+04
  0.157226141834E+04  0.161986965692E+04  0.166735558530E+04  0.171457815746E+04  0.176138781893E+04
  0.180762678020E+04  0.185312932957E+04  0.189772227765E+04  0.194122550659E+04  0.198345259586E+04
  0.202421159936E+04  0.206330590340E+04  0.210053523112E+04  0.213569673869E+04  0.216858625130E+04
  0.219899959727E+04  0.222673405825E+04  0.225158993160E+04  0.227337217208E+04  0.229189213725E+04
  0.230696938827E+04  0.231843356250E+04  0.232612628154E+04  0.232990307487E+04  0.232963531104E+04
  0.232521210123E+04  0.231654215080E+04  0.230355553635E+04  0.228620537857E+04  0.226446937804E+04
  0.223835119114E+04  0.220788160410E+04  0.217311949915E+04  0.213415255150E+04  0.209109766407E+04
  0.204410108872E+04  0.199333823016E+04  0.193901309964E+04  0.188135741465E+04  0.182062932185E+04
  0.175711174858E+04  0.169111036934E+04  0.162295120115E+04  0.155297783234E+04  0.148154830538E+04
  0.140903167764E+04  0.133580429574E+04  0.126224582597E+04  0.118873506881E+04  0.111564579838E+04
  0.104334219264E+04  0.972174745875E+03  0.902475981982E+03  0.834556503087E+03  0.768701333998E+03
  0.705166688100E+03  0.644177276681E+03  0.585924311829E+03  0.530564393391E+03  0.478219503649E+03
  0.428978304822E+03  0.382898750342E+03  0.340011595749E+03  0.300323789143E+03  0.263820298158E+03
  0.230463266265E+03  0.200188731432E+03  0.172902844863E+03  0.148480362608E+03  0.126767390515E+03
  0.107588271134E+03  0.907544509340E+02  0.760726014124E+02  0.633504173764E+02  0.524001100278E+02
  0.430404409857E+02  0.350980933202E+02  0.284087988168E+02  0.228183342407E+02  0.181833598331E+02
  0.143720451124E+02  0.112644434343E+02  0.875260472780E+01  0.674043771869E+01  0.514334866793E+01
  0.388769191896E+01  0.291007157106E+01  0.215653420764E+01  0.158169104647E+01  0.114780501202E+01
  0.823874182651E+00  0.584738416366E+00  0.410230805826E+00  0.284390385677E+00  0.194747361572E+00
  0.131687353972E+00  0.878969298237E-01  0.578891466977E-01  0.376050505208E-01  0.240850450603E-01
  0.152027567245E-01  0.945336875532E-02  0.578828890297E-02  0.348832620364E-02  0.206816388365E-02
  0.120571579456E-02  0.690846457071E-03  0.388841118991E-03  0.214875647520E-03  0.116517050159E-03
  0.619632707151E-04  0.322975259184E-04  0.164904971043E-04  0.824250313206E-05  0.403058697483E-05
  0.192697287548E-05  0.900091241875E-06  0.410485221495E-06  0.182639890725E-06  0.792242716096E-07
  0.334774763100E-07  0.137700619677E-07  0.550875937537E-08  0.214161338764E-08  0.808389172263E-09
  0.296007327267E-09  0.105047209884E-09  0.360953111724E-10  0.119969672164E-10  0.385302974212E-11
  0.119449508471E-11  0.357061532784E-12  0.102798855720E-12  0.284717196428E-13  0.757698632475E-14
  0.193507159880E-14  0.473651026669E-15  0.110970240171E-15  0.248512956769E-16  0.531221576853E-17
  0.108232492613E-17  0.209868384496E-18  0.386701998848E-19  0.676018309427E-20  0.111939955651E-20
  0.175277897752E-21  0.259079652323E-22  0.360852459185E-23  0.472736231684E-24  0.581405804574E-25
  0.669983991758E-26  0.721940658852E-27  0.725924142978E-28  0.679683361753E-29  0.591278568799E-30
  0.476829056869E-31  0.355633725492E-32  0.244718079417E-33  0.154979052009E-34  0.900972305673E-36
  0.479550994136E-37  0.233056503359E-38  0.103127060877E-39  0.414298796570E-41
 mkinetic energy-density pseudized
  0.100410759564E-06  0.106733819873E-06  0.113455055553E-06  0.120599540478E-06  0.128193927473E-06
  0.136266547744E-06  0.144847516567E-06  0.153968845636E-06  0.163664562481E-06  0.173970837415E-06
  0.184926118462E-06  0.196571274796E-06  0.208949749198E-06  0.222107720129E-06  0.236094273994E-06
  0.250961588264E-06  0.266765126128E-06  0.283563843397E-06  0.301420408445E-06  0.320401435993E-06
  0.340577735622E-06  0.362024575924E-06  0.384821965306E-06  0.409054950452E-06  0.434813933605E-06
  0.462195009808E-06  0.491300325395E-06  0.522238459051E-06  0.555124826869E-06  0.590082112917E-06
  0.627240726913E-06  0.666739290724E-06  0.708725155505E-06  0.753354951393E-06  0.800795171827E-06
  0.851222794653E-06  0.904825942355E-06  0.961804583844E-06  0.102237128046E-05  0.108675197893E-05
  0.115518685429E-05  0.122793120583E-05  0.130525640954E-05  0.138745093048E-05  0.147482139887E-05
  0.156769375405E-05  0.166641446034E-05  0.177135179961E-05  0.188289724510E-05  0.200146692187E-05
  0.212750315915E-05  0.226147614047E-05  0.240388565770E-05  0.255526297553E-05  0.271617281336E-05
  0.288721545204E-05  0.306902897319E-05  0.326229163962E-05  0.346772442557E-05  0.368609370638E-05
  0.391821411739E-05  0.416495159304E-05  0.442722659721E-05  0.470601755704E-05  0.500236451297E-05
  0.531737299864E-05  0.565221816508E-05  0.600814916465E-05  0.638649381102E-05  0.678866353255E-05
  0.721615863768E-05  0.767057391184E-05  0.815360456677E-05  0.866705256451E-05  0.921283333965E-05
  0.979298294483E-05  0.104096656462E-04  0.110651819972E-04  0.117619774207E-04  0.125026513317E-04
  0.132899668343E-04  0.141268610295E-04  0.150164559717E-04  0.159620703156E-04  0.169672316964E-04
  0.180356898892E-04  0.191714307975E-04  0.203786913225E-04  0.216619751681E-04  0.230260696422E-04
  0.244760635151E-04  0.260173660025E-04  0.276557269444E-04  0.293972582540E-04  0.312484567177E-04
  0.332162282303E-04  0.353079135565E-04  0.375313157148E-04  0.398947290850E-04  0.424069703492E-04
  0.450774113805E-04  0.479160142032E-04  0.509333681537E-04  0.541407293814E-04  0.575500628371E-04
  0.611740869050E-04  0.650263208446E-04  0.691211352204E-04  0.734738055060E-04  0.781005690640E-04
  0.830186857133E-04  0.882465021091E-04  0.938035201777E-04  0.997104698584E-04  0.105989386427E-03
  0.112663692684E-03  0.119758286324E-03  0.127299632796E-03  0.135315864021E-03  0.143836883312E-03
  0.152894476910E-03  0.162522432536E-03  0.172756665407E-03  0.183635352184E-03  0.195199073354E-03
  0.207490964573E-03  0.220556877536E-03  0.234445550970E-03  0.249208792398E-03  0.264901671331E-03
  0.281582724631E-03  0.299314174792E-03  0.318162161960E-03  0.338196990555E-03  0.359493391413E-03
  0.382130800424E-03  0.406193654700E-03  0.431771707383E-03  0.458960362255E-03  0.487861029408E-03
  0.518581503278E-03  0.551236364467E-03  0.585947406843E-03  0.622844091499E-03  0.662064029264E-03
  0.703753493560E-03  0.748067965509E-03  0.795172713317E-03  0.845243408082E-03  0.898466778316E-03
  0.955041305614E-03  0.101517796404E-02  0.107910100599E-02  0.114704879742E-02  0.121927470557E-02
  0.129604804244E-02  0.137765506751E-02  0.146440005350E-02  0.155660641893E-02  0.165461793189E-02
  0.175879998931E-02  0.186954097650E-02  0.198725371200E-02  0.211237698307E-02  0.224537717744E-02
  0.238675001736E-02  0.253702240230E-02  0.269675436720E-02  0.286654116322E-02  0.304701546893E-02
  0.323884973974E-02  0.344275870446E-02  0.365950201789E-02  0.388988707929E-02  0.413477202690E-02
  0.439506891954E-02  0.467174711673E-02  0.496583686975E-02  0.527843313647E-02  0.561069963399E-02
  0.596387314354E-02  0.633926808328E-02  0.673828136529E-02  0.716239755441E-02  0.761319434717E-02
  0.809234839049E-02  0.860164146082E-02  0.914296702568E-02  0.971833721072E-02  0.103298901970E-01
  0.109798980741E-01  0.116707751775E-01  0.124050869373E-01  0.131855592716E-01  0.140150885547E-01
  0.148967521951E-01  0.158338198599E-01  0.168297653831E-01  0.178882793974E-01  0.190132827337E-01
  0.202089406299E-01  0.214796777987E-01  0.228301944016E-01  0.242654829817E-01  0.257908464095E-01
  0.274119168979E-01  0.291346761474E-01  0.309654766817E-01  0.329110644413E-01  0.349786027006E-01
  0.371756973808E-01  0.395104238323E-01  0.419913551612E-01  0.446275921816E-01  0.474287950734E-01
  0.504052168305E-01  0.535677385870E-01  0.569279069082E-01  0.604979731396E-01  0.642909349028E-01
  0.683205798347E-01  0.726015316603E-01  0.771492986960E-01  0.819803248719E-01  0.871120433679E-01
  0.925629329471E-01  0.983525770741E-01  0.104501725893E+00  0.111032361136E+00  0.117967764028E+00
  0.125332586227E+00  0.133152923850E+00  0.141456394587E+00  0.150272217913E+00  0.159631298361E+00
  0.169566311810E+00  0.180111794687E+00  0.191304235953E+00  0.203182171709E+00  0.215786282170E+00
  0.229159490725E+00  0.243347064714E+00  0.258396717474E+00  0.274358711106E+00  0.291285959305E+00
  0.309234129499E+00  0.328261743349E+00  0.348430274564E+00  0.369804242758E+00  0.392451301893E+00
  0.416442321641E+00  0.441851459689E+00  0.468756222793E+00  0.497237514008E+00  0.527379663195E+00
  0.559270437499E+00  0.593001028044E+00  0.628666008619E+00  0.666363261574E+00  0.706193865567E+00
  0.748261939138E+00  0.792674433406E+00  0.839540866390E+00  0.888972990656E+00  0.941084385064E+00
  0.995989960489E+00  0.105380536834E+01  0.111464629965E+01  0.117862766145E+01  0.124586261600E+01
  0.131646146717E+01  0.139053037740E+01  0.146816989742E+01  0.154947328975E+01  0.163452462653E+01
  0.172339664098E+01  0.181614831193E+01  0.191282216026E+01  0.201344123677E+01  0.211800578182E+01
  0.222648953869E+01  0.233883570542E+01  0.245495251332E+01  0.257470842558E+01  0.269792695618E+01
  0.282438111770E+01  0.295378751787E+01  0.308580013820E+01  0.322000384472E+01  0.335590770130E+01
  0.349293818002E+01  0.363043239213E+01  0.376763149632E+01  0.390367448028E+01  0.403759255536E+01
  0.416830445465E+01  0.429461297972E+01  0.441520320200E+01  0.452864278932E+01  0.463338499497E+01
  0.472777491459E+01  0.481005968023E+01  0.487840331855E+01  0.493090704366E+01  0.496563577825E+01
  0.498065168912E+01  0.497405547243E+01  0.494403601735E+01  0.488892889423E+01  0.480728383811E+01
  0.469794100587E+01  0.456011525306E+01  0.439348697936E+01  0.419829720669E+01  0.397544346205E+01
  0.372657172700E+01  0.345415818855E+01  0.316157280462E+01  0.285311483121E+01  0.253400853738E+01
  0.221034550007E+01  0.188895832936E+01  0.157720971191E+01  0.128268065290E+01  0.101274322140E+01
  0.774006539286E+00  0.571630863939E+00  0.408514120613E+00  0.284368854948E+00  0.194747361572E+00
  0.131687353972E+00  0.878969298237E-01  0.578891466977E-01  0.376050505208E-01  0.240850450603E-01
  0.152027567245E-01  0.945336875532E-02  0.578828890297E-02  0.348832620364E-02  0.206816388365E-02
  0.120571579456E-02  0.690846457071E-03  0.388841118991E-03  0.214875647520E-03  0.116517050159E-03
  0.619632707151E-04  0.322975259184E-04  0.164904971043E-04  0.824250313206E-05  0.403058697483E-05
  0.192697287548E-05  0.900091241875E-06  0.410485221495E-06  0.182639890725E-06  0.792242716096E-07
  0.334774763100E-07  0.137700619677E-07  0.550875937537E-08  0.214161338764E-08  0.808389172263E-09
  0.296007327267E-09  0.105047209884E-09  0.360953111724E-10  0.119969672164E-10  0.385302974212E-11
  0.119449508471E-11  0.357061532784E-12  0.102798855720E-12  0.284717196428E-13  0.757698632475E-14
  0.193507159880E-14  0.473651026669E-15  0.110970240171E-15  0.248512956769E-16  0.531221576853E-17
  0.108232492613E-17  0.209868384496E-18  0.386701998848E-19  0.676018309427E-20  0.111939955651E-20
  0.175277897752E-21  0.259079652323E-22  0.360852459185E-23  0.472736231684E-24  0.581405804574E-25
  0.669983991758E-26  0.721940658852E-27  0.725924142978E-28  0.679683361753E-29  0.591278568799E-30
  0.476829056869E-31  0.355633725492E-32  0.244718079417E-33  0.154979052009E-34  0.900972305673E-36
  0.479550994136E-37  0.233056503359E-38  0.103127060877E-39  0.414298796570E-41
 local pseudopotential core
 -0.165004244424E+03 -0.165003358173E+03 -0.165002498577E+03 -0.165001664832E+03 -0.165000856163E+03
 -0.165000071815E+03 -0.164999311057E+03 -0.164998573180E+03 -0.164997857496E+03 -0.164997163337E+03
 -0.164996490057E+03 -0.164995837028E+03 -0.164995203640E+03 -0.164994589304E+03 -0.164993993447E+03
 -0.164993415513E+03 -0.164992854963E+03 -0.164992311276E+03 -0.164991783943E+03 -0.164991272475E+03
 -0.164990776394E+03 -0.164990295237E+03 -0.164989828556E+03 -0.164989375916E+03 -0.164988936896E+03
 -0.164988511086E+03 -0.164988098090E+03 -0.164987697522E+03 -0.164987309010E+03 -0.164986932191E+03
 -0.164986566715E+03 -0.164986212240E+03 -0.164985868438E+03 -0.164985534987E+03 -0.164985211577E+03
 -0.164984897907E+03 -0.164984593685E+03 -0.164984298628E+03 -0.164984012461E+03 -0.164983734918E+03
 -0.164983465741E+03 -0.164983204679E+03 -0.164982951490E+03 -0.164982705937E+03 -0.164982467794E+03
 -0.164982236838E+03 -0.164982012855E+03 -0.164981795638E+03 -0.164981584984E+03 -0.164981380698E+03
 -0.164981182591E+03 -0.164980990480E+03 -0.164980804185E+03 -0.164980623536E+03 -0.164980448363E+03
 -0.164980278507E+03 -0.164980113810E+03 -0.164979954120E+03 -0.164979799289E+03 -0.164979649176E+03
 -0.164979503643E+03 -0.164979362555E+03 -0.164979225783E+03 -0.164979093202E+03 -0.164978964692E+03
 -0.164978840134E+03 -0.164978719416E+03 -0.164978602428E+03 -0.164978489064E+03 -0.164978379222E+03
 -0.164978272803E+03 -0.164978169711E+03 -0.164978069855E+03 -0.164977973146E+03 -0.164977879498E+03
 -0.164977788828E+03 -0.164977701058E+03 -0.164977616110E+03 -0.164977533913E+03 -0.164977454395E+03
 -0.164977377488E+03 -0.164977303129E+03 -0.164977231255E+03 -0.164977161807E+03 -0.164977094729E+03
 -0.164977029967E+03 -0.164976967471E+03 -0.164976907192E+03 -0.164976849086E+03 -0.164976793108E+03
 -0.164976739220E+03 -0.164976687384E+03 -0.164976637566E+03 -0.164976589734E+03 -0.164976543858E+03
 -0.164976499912E+03 -0.164976457874E+03 -0.164976417723E+03 -0.164976379441E+03 -0.164976343013E+03
 -0.164976308428E+03 -0.164976275679E+03 -0.164976244758E+03 -0.164976215666E+03 -0.164976188403E+03
 -0.164976162975E+03 -0.164976139390E+03 -0.164976117660E+03 -0.164976097803E+03 -0.164976079838E+03
 -0.164976063790E+03 -0.164976049688E+03 -0.164976037567E+03 -0.164976027463E+03 -0.164976019422E+03
 -0.164976013490E+03 -0.164976009724E+03 -0.164976008182E+03 -0.164976008930E+03 -0.164976012042E+03
 -0.164976017596E+03 -0.164976025679E+03 -0.164976036383E+03 -0.164976049812E+03 -0.164976066074E+03
 -0.164976085288E+03 -0.164976107582E+03 -0.164976133094E+03 -0.164976161973E+03 -0.164976194376E+03
 -0.164976230475E+03 -0.164976270452E+03 -0.164976314504E+03 -0.164976362840E+03 -0.164976415685E+03
 -0.164976473278E+03 -0.164976535876E+03 -0.164976603752E+03 -0.164976677199E+03 -0.164976756528E+03
 -0.164976842072E+03 -0.164976934185E+03 -0.164977033246E+03 -0.164977139657E+03 -0.164977253848E+03
 -0.164977376276E+03 -0.164977507428E+03 -0.164977647823E+03 -0.164977798014E+03 -0.164977958588E+03
 -0.164978130171E+03 -0.164978313429E+03 -0.164978509071E+03 -0.164978717852E+03 -0.164978940573E+03
 -0.164979178088E+03 -0.164979431306E+03 -0.164979701192E+03 -0.164979988774E+03 -0.164980295144E+03
 -0.164980621465E+03 -0.164980968972E+03 -0.164981338980E+03 -0.164981732886E+03 -0.164982152177E+03
 -0.164982598431E+03 -0.164983073328E+03 -0.164983578656E+03 -0.164984116312E+03 -0.164984688315E+03
 -0.164985296811E+03 -0.164985944082E+03 -0.164986632553E+03 -0.164987364803E+03 -0.164988143570E+03
 -0.164988971770E+03 -0.164989852499E+03 -0.164990789047E+03 -0.164991784915E+03 -0.164992843820E+03
 -0.164993969716E+03 -0.164995166803E+03 -0.164996439546E+03 -0.164997792692E+03 -0.164999231284E+03
 -0.165000760682E+03 -0.165002386584E+03 -0.165004115043E+03 -0.165005952494E+03 -0.165007905774E+03
 -0.165009982149E+03 -0.165012189341E+03 -0.165014535555E+03 -0.165017029508E+03 -0.165019680465E+03
 -0.165022498270E+03 -0.165025493381E+03 -0.165028676911E+03 -0.165032060666E+03 -0.165035657190E+03
 -0.165039479807E+03 -0.165043542674E+03 -0.165047860829E+03 -0.165052450246E+03 -0.165057327893E+03
 -0.165062511792E+03 -0.165068021084E+03 -0.165073876099E+03 -0.165080098425E+03 -0.165086710987E+03
 -0.165093738129E+03 -0.165101205698E+03 -0.165109141135E+03 -0.165117573573E+03 -0.165126533937E+03
 -0.165136055051E+03 -0.165146171753E+03 -0.165156921015E+03 -0.165168342065E+03 -0.165180476529E+03
 -0.165193368563E+03 -0.165207065005E+03 -0.165221615532E+03 -0.165237072824E+03 -0.165253492732E+03
 -0.165270934468E+03 -0.165289460789E+03 -0.165309138199E+03 -0.165330037159E+03 -0.165352232306E+03
 -0.165375802682E+03 -0.165400831975E+03 -0.165427408767E+03 -0.165455626795E+03 -0.165485585219E+03
 -0.165517388909E+03 -0.165551148725E+03 -0.165586981827E+03 -0.165625011976E+03 -0.165665369855E+03
 -0.165708193392E+03 -0.165753628094E+03 -0.165801827376E+03 -0.165852952907E+03 -0.165907174947E+03
 -0.165964672689E+03 -0.166025634591E+03 -0.166090258708E+03 -0.166158753008E+03 -0.166231335674E+03
 -0.166308235384E+03 -0.166389691567E+03 -0.166475954620E+03 -0.166567286084E+03 -0.166663958775E+03
 -0.166766256840E+03 -0.166874475750E+03 -0.166988922197E+03 -0.167109913891E+03 -0.167237779232E+03
 -0.167372856841E+03 -0.167515494926E+03 -0.167666050455E+03 -0.167824888114E+03 -0.167992379005E+03
 -0.168168899066E+03 -0.168354827150E+03 -0.168550542745E+03 -0.168756423258E+03 -0.168972840824E+03
 -0.169200158580E+03 -0.169438726324E+03 -0.169688875497E+03 -0.169950913398E+03 -0.170225116555E+03
 -0.170511723140E+03 -0.170810924339E+03 -0.171122854555E+03 -0.171447580331E+03 -0.171785087864E+03
 -0.172135268975E+03 -0.172497905401E+03 -0.172872651264E+03 -0.173259013576E+03 -0.173656330632E+03
 -0.174063748161E+03 -0.174480193108E+03 -0.174904344934E+03 -0.175334604340E+03 -0.175769059382E+03
 -0.176205448944E+03 -0.176641123627E+03 -0.177073004160E+03 -0.177497537542E+03 -0.177910651204E+03
 -0.178307705624E+03 -0.178683445942E+03 -0.179031953306E+03 -0.179346596820E+03 -0.179619987192E+03
 -0.179843933349E+03 -0.180009403527E+03 -0.180106492567E+03 -0.180124397383E+03 -0.180051402856E+03
 -0.179874880725E+03 -0.179581304408E+03 -0.179156283190E+03 -0.178584619856E+03 -0.177850396658E+03
 -0.176937095610E+03 -0.175827760477E+03 -0.174505209438E+03 -0.172952309346E+03 -0.171152324490E+03
 -0.169089354646E+03 -0.166748878707E+03 -0.164118420607E+03 -0.161188353137E+03 -0.157952851550E+03
 -0.154411001467E+03 -0.150568053357E+03 -0.146436797076E+03 -0.142039003665E+03 -0.137406846693E+03
 -0.132584172757E+03 -0.127627442925E+03 -0.122606120941E+03 -0.117589907284E+03 -0.112726741148E+03
 -0.108094812155E+03 -0.103777737508E+03 -0.998826617547E+02 -0.965476713691E+02 -0.938102996382E+02
 -0.917157821100E+02 -0.898884371475E+02 -0.871819483159E+02 -0.845601435058E+02 -0.820171752170E+02
 -0.795506968878E+02 -0.771583848845E+02 -0.748380158296E+02 -0.725874265142E+02 -0.704045180368E+02
 -0.682872558192E+02 -0.662336652992E+02 -0.642418314589E+02 -0.623098977547E+02 -0.604360625478E+02
 -0.586185786743E+02 -0.568557515310E+02 -0.551459443917E+02 -0.534875419826E+02 -0.518790192614E+02
 -0.503188691640E+02 -0.488056370908E+02 -0.473379120796E+02 -0.459143256122E+02 -0.445335503413E+02
 -0.431942988167E+02 -0.418953223016E+02 -0.406354097034E+02 -0.394133861703E+02 -0.382281123756E+02
 -0.370784831047E+02 -0.359634264601E+02 -0.348819027684E+02 -0.338329035808E+02 -0.328154508071E+02
 -0.318285957569E+02 -0.308714182678E+02 -0.299430258505E+02 -0.290425528561E+02 -0.281691596662E+02
 -0.273220319126E+02 -0.265003797177E+02 -0.257034369598E+02 -0.249304605550E+02 -0.241807297676E+02
 -0.234535455361E+02 -0.227482298217E+02 -0.220641249765E+02 -0.214005931296E+02 -0.207570155925E+02
 -0.201327922825E+02 -0.195273411631E+02 -0.189400977008E+02 -0.183705143396E+02 -0.178180599897E+02
 -0.172822195327E+02 -0.167624933412E+02 -0.162583968132E+02 -0.157694599197E+02 -0.152952267671E+02
 -0.148352551716E+02 -0.143891162472E+02 -0.139563940057E+02 -0.135366849690E+02
 pspotential valence only
 -0.106303122089E+03 -0.106302235812E+03 -0.106301376189E+03 -0.106300542414E+03 -0.106299733715E+03
 -0.106298949334E+03 -0.106298188542E+03 -0.106297450627E+03 -0.106296734904E+03 -0.106296040703E+03
 -0.106295367378E+03 -0.106294714301E+03 -0.106294080863E+03 -0.106293466474E+03 -0.106292870560E+03
 -0.106292292565E+03 -0.106291731952E+03 -0.106291188196E+03 -0.106290660791E+03 -0.106290149245E+03
 -0.106289653082E+03 -0.106289171838E+03 -0.106288705064E+03 -0.106288252326E+03 -0.106287813201E+03
 -0.106287387280E+03 -0.106286974165E+03 -0.106286573472E+03 -0.106286184826E+03 -0.106285807865E+03
 -0.106285442238E+03 -0.106285087603E+03 -0.106284743629E+03 -0.106284409997E+03 -0.106284086394E+03
 -0.106283772520E+03 -0.106283468080E+03 -0.106283172791E+03 -0.106282886378E+03 -0.106282608573E+03
 -0.106282339117E+03 -0.106282077760E+03 -0.106281824256E+03 -0.106281578369E+03 -0.106281339871E+03
 -0.106281108537E+03 -0.106280884153E+03 -0.106280666509E+03 -0.106280455402E+03 -0.106280250634E+03
 -0.106280052015E+03 -0.106279859358E+03 -0.106279672485E+03 -0.106279491220E+03 -0.106279315393E+03
 -0.106279144842E+03 -0.106278979405E+03 -0.106278818929E+03 -0.106278663264E+03 -0.106278512263E+03
 -0.106278365785E+03 -0.106278223694E+03 -0.106278085856E+03 -0.106277952142E+03 -0.106277822427E+03
 -0.106277696589E+03 -0.106277574509E+03 -0.106277456074E+03 -0.106277341172E+03 -0.106277229695E+03
 -0.106277121537E+03 -0.106277016598E+03 -0.106276914778E+03 -0.106276815981E+03 -0.106276720114E+03
 -0.106276627085E+03 -0.106276536808E+03 -0.106276449196E+03 -0.106276364165E+03 -0.106276281635E+03
 -0.106276201528E+03 -0.106276123766E+03 -0.106276048275E+03 -0.106275974982E+03 -0.106275903818E+03
 -0.106275834712E+03 -0.106275767598E+03 -0.106275702411E+03 -0.106275639087E+03 -0.106275577564E+03
 -0.106275517781E+03 -0.106275459678E+03 -0.106275403199E+03 -0.106275348286E+03 -0.106275294883E+03
 -0.106275242938E+03 -0.106275192395E+03 -0.106275143204E+03 -0.106275095313E+03 -0.106275048671E+03
 -0.106275003229E+03 -0.106274958939E+03 -0.106274915751E+03 -0.106274873618E+03 -0.106274832494E+03
 -0.106274792331E+03 -0.106274753084E+03 -0.106274714706E+03 -0.106274677152E+03 -0.106274640376E+03
 -0.106274604332E+03 -0.106274568976E+03 -0.106274534261E+03 -0.106274500141E+03 -0.106274466571E+03
 -0.106274433504E+03 -0.106274400893E+03 -0.106274368690E+03 -0.106274336846E+03 -0.106274305314E+03
 -0.106274274042E+03 -0.106274242980E+03 -0.106274212075E+03 -0.106274181273E+03 -0.106274150520E+03
 -0.106274119759E+03 -0.106274088930E+03 -0.106274057975E+03 -0.106274026830E+03 -0.106273995430E+03
 -0.106273963707E+03 -0.106273931593E+03 -0.106273899014E+03 -0.106273865893E+03 -0.106273832152E+03
 -0.106273797707E+03 -0.106273762471E+03 -0.106273726353E+03 -0.106273689257E+03 -0.106273651082E+03
 -0.106273611723E+03 -0.106273571069E+03 -0.106273529002E+03 -0.106273485399E+03 -0.106273440130E+03
 -0.106273393057E+03 -0.106273344036E+03 -0.106273292913E+03 -0.106273239525E+03 -0.106273183703E+03
 -0.106273125263E+03 -0.106273064016E+03 -0.106272999758E+03 -0.106272932273E+03 -0.106272861334E+03
 -0.106272786700E+03 -0.106272708114E+03 -0.106272625305E+03 -0.106272537986E+03 -0.106272445851E+03
 -0.106272348577E+03 -0.106272245820E+03 -0.106272137215E+03 -0.106272022376E+03 -0.106271900892E+03
 -0.106271772326E+03 -0.106271636217E+03 -0.106271492071E+03 -0.106271339368E+03 -0.106271177553E+03
 -0.106271006036E+03 -0.106270824193E+03 -0.106270631359E+03 -0.106270426828E+03 -0.106270209850E+03
 -0.106269979630E+03 -0.106269735319E+03 -0.106269476020E+03 -0.106269200776E+03 -0.106268908573E+03
 -0.106268598331E+03 -0.106268268904E+03 -0.106267919074E+03 -0.106267547546E+03 -0.106267152944E+03
 -0.106266733807E+03 -0.106266288580E+03 -0.106265815613E+03 -0.106265313151E+03 -0.106264779328E+03
 -0.106264212162E+03 -0.106263609547E+03 -0.106262969245E+03 -0.106262288875E+03 -0.106261565909E+03
 -0.106260797659E+03 -0.106259981269E+03 -0.106259113703E+03 -0.106258191735E+03 -0.106257211935E+03
 -0.106256170658E+03 -0.106255064031E+03 -0.106253887938E+03 -0.106252638003E+03 -0.106251309576E+03
 -0.106249897715E+03 -0.106248397168E+03 -0.106246802353E+03 -0.106245107338E+03 -0.106243305817E+03
 -0.106241391091E+03 -0.106239356039E+03 -0.106237193094E+03 -0.106234894213E+03 -0.106232450852E+03
 -0.106229853927E+03 -0.106227093789E+03 -0.106224160182E+03 -0.106221042207E+03 -0.106217728286E+03
 -0.106214206111E+03 -0.106210462610E+03 -0.106206483889E+03 -0.106202255186E+03 -0.106197760819E+03
 -0.106192984123E+03 -0.106187907396E+03 -0.106182511830E+03 -0.106176777442E+03 -0.106170683007E+03
 -0.106164205977E+03 -0.106157322400E+03 -0.106150006835E+03 -0.106142232260E+03 -0.106133969974E+03
 -0.106125189497E+03 -0.106115858460E+03 -0.106105942488E+03 -0.106095405084E+03 -0.106084207492E+03
 -0.106072308566E+03 -0.106059664626E+03 -0.106046229303E+03 -0.106031953378E+03 -0.106016784614E+03
 -0.106000667572E+03 -0.105983543427E+03 -0.105965349759E+03 -0.105946020349E+03 -0.105925484953E+03
 -0.105903669064E+03 -0.105880493668E+03 -0.105855874981E+03 -0.105829724173E+03 -0.105801947082E+03
 -0.105772443907E+03 -0.105741108886E+03 -0.105707829967E+03 -0.105672488446E+03 -0.105634958605E+03
 -0.105595107317E+03 -0.105552793638E+03 -0.105507868384E+03 -0.105460173675E+03 -0.105409542468E+03
 -0.105355798061E+03 -0.105298753575E+03 -0.105238211408E+03 -0.105173962662E+03 -0.105105786541E+03
 -0.105033449714E+03 -0.104956705647E+03 -0.104875293897E+03 -0.104788939355E+03 -0.104697351458E+03
 -0.104600223338E+03 -0.104497230918E+03 -0.104388031952E+03 -0.104272264988E+03 -0.104149548263E+03
 -0.104019478514E+03 -0.103881629704E+03 -0.103735551654E+03 -0.103580768588E+03 -0.103416777574E+03
 -0.103243046894E+03 -0.103059014324E+03 -0.102864085376E+03 -0.102657631516E+03 -0.102438988420E+03
 -0.102207454340E+03 -0.101962288667E+03 -0.101702710831E+03 -0.101427899687E+03 -0.101136993587E+03
 -0.100829091375E+03 -0.100503254583E+03 -0.100158511131E+03 -0.997938608607E+02 -0.994082832553E+02
 -0.990007476479E+02 -0.985702261972E+02 -0.981157097973E+02 -0.976362269457E+02 -0.971308653939E+02
 -0.965987961477E+02 -0.960392990882E+02 -0.954517891591E+02 -0.948358417436E+02 -0.941912155722E+02
 -0.935178712915E+02 -0.928159837396E+02 -0.920859460221E+02 -0.913283636965E+02 -0.905440377304E+02
 -0.897339353790E+02 -0.888991486788E+02 -0.880408408430E+02 -0.871601814333E+02 -0.862582717777E+02
 -0.853360627582E+02 -0.843942678785E+02 -0.834332755628E+02 -0.824530660263E+02 -0.814531398594E+02
 -0.804324677250E+02 -0.793894733698E+02 -0.783220659274E+02 -0.772153990766E+02 -0.761215686041E+02
 -0.750147444636E+02 -0.738710469758E+02 -0.726929012451E+02 -0.715239891908E+02 -0.703260079690E+02
 -0.690950451185E+02 -0.678383299575E+02 -0.665830513997E+02 -0.653236791265E+02 -0.640590656940E+02
 -0.627913868676E+02 -0.615227227132E+02 -0.602550215233E+02 -0.589900761191E+02 -0.577295002498E+02
 -0.564747132155E+02 -0.552269326439E+02 -0.539871781594E+02 -0.527562866405E+02 -0.515349396867E+02
 -0.503237019290E+02 -0.491230679775E+02 -0.479335146096E+02 -0.467555482868E+02 -0.455897587322E+02
 -0.444368476562E+02 -0.432976556180E+02 -0.421731693520E+02 -0.410645145245E+02 -0.399729343717E+02
 -0.388997564336E+02 -0.378463502098E+02 -0.368140787624E+02 -0.358042472639E+02 -0.348180513137E+02
 -0.338565277674E+02 -0.329205107111E+02 -0.320105952759E+02 -0.311271118111E+02 -0.302701126510E+02
 -0.294393729592E+02 -0.286344060614E+02 -0.278544923014E+02 -0.270987190485E+02 -0.263660283296E+02
 -0.256552678991E+02 -0.249652415141E+02 -0.242947547304E+02 -0.236426534972E+02 -0.230078539946E+02
 -0.223893632855E+02 -0.217862912838E+02 -0.211978551883E+02 -0.206233778781E+02 -0.200622818571E+02
 -0.195140802427E+02 -0.189783660815E+02 -0.184548010177E+02 -0.179431040713E+02 -0.174430410447E+02
 -0.169544148739E+02 -0.164770570862E+02 -0.160108204113E+02 -0.155555725167E+02 -0.151111907893E+02
 -0.146775580634E+02 -0.142545591814E+02 -0.138420782774E+02 -0.134399966805E+02
 core charge-density (pseudized)
  0.204833760988E-09  0.217732540260E-09  0.231443580678E-09  0.246018031901E-09  0.261510264580E-09
  0.277978073193E-09  0.295482891647E-09  0.314090022461E-09  0.333868880380E-09  0.354893251331E-09
  0.377241567681E-09  0.400997200838E-09  0.426248772265E-09  0.453090484095E-09  0.481622470547E-09
  0.511951171486E-09  0.544189729503E-09  0.578458411994E-09  0.614885059827E-09  0.653605564256E-09
  0.694764373868E-09  0.738515033458E-09  0.785020756831E-09  0.834455035682E-09  0.887002286811E-09
  0.942858540098E-09  0.100223216981E-08  0.106534467192E-08  0.113243149046E-08  0.120374289580E-08
  0.127954491833E-08  0.136012034088E-08  0.144576975365E-08  0.153681267559E-08  0.163358874637E-08
  0.173645899343E-08  0.184580717876E-08  0.196204123062E-08  0.208559476527E-08  0.221692870461E-08
  0.235653299568E-08  0.250492843841E-08  0.266266862850E-08  0.283034202260E-08  0.300857413361E-08
  0.319802986416E-08  0.339941598705E-08  0.361348378188E-08  0.384103183777E-08  0.408290903247E-08
  0.434001769917E-08  0.461331699266E-08  0.490382646750E-08  0.521262988148E-08  0.554087923866E-08
  0.588979908691E-08  0.626069108614E-08  0.665493886417E-08  0.707401317840E-08  0.751947740253E-08
  0.799299335872E-08  0.849632751709E-08  0.903135758556E-08  0.960007951469E-08  0.102046149436E-07
  0.108472191148E-07  0.115302892874E-07  0.122563736802E-07  0.130281809775E-07  0.138485904345E-07
  0.147206626177E-07  0.156476508230E-07  0.166330132116E-07  0.176804257109E-07  0.187937957276E-07
  0.199772767242E-07  0.212352837133E-07  0.225725097281E-07  0.239939433294E-07  0.255048872153E-07
  0.271109780029E-07  0.288182072558E-07  0.306329438348E-07  0.325619576573E-07  0.346124449519E-07
  0.367920551035E-07  0.391089191892E-07  0.415716803106E-07  0.441895258363E-07  0.469722216747E-07
  0.499301487049E-07  0.530743415019E-07  0.564165294994E-07  0.599691807459E-07  0.637455484148E-07
  0.677597202438E-07  0.720266710871E-07  0.765623187774E-07  0.813835835039E-07  0.865084509310E-07
  0.919560392896E-07  0.977466706943E-07  0.103901946950E-06  0.110444830134E-06  0.117399728248E-06
  0.124792586265E-06  0.132650982912E-06  0.141004233544E-06  0.149883499490E-06  0.159321904296E-06
  0.169354657273E-06  0.180019184837E-06  0.191355270105E-06  0.203405201292E-06  0.216213929445E-06
  0.229829236106E-06  0.244301911535E-06  0.259685944153E-06  0.276038721906E-06  0.293421246315E-06
  0.311898359994E-06  0.331538988491E-06  0.352416397360E-06  0.374608465409E-06  0.398197975151E-06
  0.423272921538E-06  0.449926840129E-06  0.478259155915E-06  0.508375554098E-06  0.540388374209E-06
  0.574417029029E-06  0.610588449878E-06  0.649037559928E-06  0.689907777300E-06  0.733351549824E-06
  0.779530923446E-06  0.828618146407E-06  0.880796311432E-06  0.936260038327E-06  0.995216199521E-06
  0.105788469125E-05  0.112449925327E-05  0.119530834010E-05  0.127057604709E-05  0.135058309472E-05
  0.143562787484E-05  0.152602756264E-05  0.162211929855E-05  0.172426144452E-05  0.183283491919E-05
  0.194824461701E-05  0.207092091662E-05  0.220132128390E-05  0.233993197591E-05  0.248726985170E-05
  0.264388429705E-05  0.281035927001E-05  0.298731547486E-05  0.317541267271E-05  0.337535213699E-05
  0.358787926318E-05  0.381378634221E-05  0.405391550799E-05  0.430916186963E-05  0.458047684025E-05
  0.486887167437E-05  0.517542122704E-05  0.550126794846E-05  0.584762612882E-05  0.621578640896E-05
  0.660712057325E-05  0.702308664241E-05  0.746523428485E-05  0.793521056620E-05  0.843476605816E-05
  0.896576132887E-05  0.953017383829E-05  0.101301052639E-04  0.107677892831E-04  0.114455998402E-04
  0.121660599287E-04  0.129318509197E-04  0.137458224702E-04  0.146110030468E-04  0.155306111032E-04
  0.165080669502E-04  0.175470053610E-04  0.186512889571E-04  0.198250224213E-04  0.210725675876E-04
  0.223985594629E-04  0.238079232339E-04  0.253058923208E-04  0.268980275383E-04  0.285902374316E-04
  0.303887998570E-04  0.323003848792E-04  0.343320790649E-04  0.364914112537E-04  0.387863798923E-04
  0.412254820232E-04  0.438177440230E-04  0.465727541920E-04  0.495006972981E-04  0.526123911885E-04
  0.559193255830E-04  0.594337031725E-04  0.631684831470E-04  0.671374272899E-04  0.713551487734E-04
  0.758371638014E-04  0.805999462506E-04  0.856609854638E-04  0.910388473586E-04  0.967532390178E-04
  0.102825076934E-03  0.109276559082E-03  0.116131241011E-03  0.123414116123E-03  0.131151700345E-03
  0.139372121372E-03  0.148105212677E-03  0.157382612478E-03  0.167237867854E-03  0.177706544187E-03
  0.188826340119E-03  0.200637208188E-03  0.213181481307E-03  0.226504005228E-03  0.240652277118E-03
  0.255676590342E-03  0.271630185543E-03  0.288569408038E-03  0.306553871534E-03  0.325646628112E-03
  0.345914344362E-03  0.367427483485E-03  0.390260493098E-03  0.414491998377E-03  0.440205000081E-03
  0.467487076837E-03  0.496430590963E-03  0.527132896897E-03  0.559696551138E-03  0.594229522365E-03
  0.630845400156E-03  0.669663600441E-03  0.710809565511E-03  0.754414956011E-03  0.800617831971E-03
  0.849562819430E-03  0.901401258700E-03  0.956291329738E-03  0.101439814943E-02  0.107589383488E-02
  0.114095752591E-02  0.120977535924E-02  0.128254038567E-02  0.135945242046E-02  0.144071781616E-02
  0.152654914546E-02  0.161716478051E-02  0.171278835332E-02  0.181364808048E-02  0.191997593325E-02
  0.203200663254E-02  0.214997644578E-02  0.227412176103E-02  0.240467741110E-02  0.254187471809E-02
  0.268593922680E-02  0.283708809280E-02  0.299552708882E-02  0.316144719115E-02  0.333502070576E-02
  0.351639689260E-02  0.370569704539E-02  0.390300898425E-02  0.410838091892E-02  0.432181464266E-02
  0.454325801976E-02  0.477259673526E-02  0.500964528281E-02  0.525413717688E-02  0.550571438930E-02
  0.576391602746E-02  0.602816629393E-02  0.629776179504E-02  0.657185829972E-02  0.684945709145E-02
  0.712939110520E-02  0.741031110003E-02  0.769067218600E-02  0.796872110328E-02  0.824248474170E-02
  0.850976049040E-02  0.876810912050E-02  0.901485102661E-02  0.924706678488E-02  0.946160312189E-02
  0.965508552687E-02  0.982393887125E-02  0.996441751700E-02  0.100726464851E-01  0.101446753037E-01
  0.101765461411E-01  0.101643777276E-01  0.101044663549E-01  0.999340487214E-02  0.982822003951E-02
  0.960652780613E-02  0.932670499552E-02  0.898807446839E-02  0.859109903310E-02  0.813757715395E-02
  0.763083084197E-02  0.707587300432E-02  0.647953802170E-02  0.585055551864E-02  0.519954337144E-02
  0.453889224859E-02  0.388251081731E-02  0.324539875667E-02  0.264301465870E-02  0.209040874325E-02
  0.160109723525E-02  0.118566761062E-02  0.850123176431E-03  0.594003070571E-03  0.408395333890E-03
  0.277240370311E-03  0.185775025615E-03  0.122831331298E-03  0.801037316694E-04  0.515043219388E-04
  0.326363886311E-04  0.203724169086E-04  0.125220019327E-04  0.757527515406E-05  0.450830130131E-05
  0.263819761430E-05  0.151727715932E-05  0.857160605918E-06  0.475410303565E-06  0.258729670345E-06
  0.138086057402E-06  0.722314610159E-07  0.370096600223E-07  0.185629494615E-07  0.910845686849E-08
  0.436940952226E-08  0.204779353782E-08  0.936982076507E-09  0.418258591348E-09  0.182013624740E-09
  0.771569668921E-10  0.318357285543E-10  0.127752079609E-10  0.498159427524E-11  0.188598229330E-11
  0.692604025446E-12  0.246494315584E-12  0.849349193704E-13  0.283068968066E-13  0.911548357493E-14
  0.283327531106E-14  0.849071924741E-15  0.245050923468E-15  0.680327475072E-16  0.181470860207E-16
  0.464498000278E-17  0.113944347556E-17  0.267522527865E-18  0.600337636740E-19  0.128584722925E-19
  0.262490886242E-20  0.509945345871E-21  0.941350985564E-22  0.164858752089E-22  0.273462739426E-23
  0.428925577688E-24  0.635057769142E-25  0.885970233932E-26  0.116252745537E-26  0.143200576541E-27
  0.165271484844E-28  0.178357309896E-29  0.179607775786E-30  0.168412510742E-31  0.146718129219E-32
  0.118486592989E-33  0.884944603632E-35  0.609787577708E-36  0.386703975621E-37  0.225115334046E-38
  0.119981026466E-39  0.583876096058E-41  0.258709833632E-42  0.104072434120E-43
 pseudo wavefunction
  0.121052327870E-03  0.124805592280E-03  0.128675227799E-03  0.132664842549E-03  0.136778156521E-03
  0.141019005048E-03  0.145391342378E-03  0.149899245361E-03  0.154546917251E-03  0.159338691626E-03
  0.164279036427E-03  0.169372558125E-03  0.174624006016E-03  0.180038276650E-03  0.185620418396E-03
  0.191375636148E-03  0.197309296180E-03  0.203426931149E-03  0.209734245254E-03  0.216237119553E-03
  0.222941617450E-03  0.229853990345E-03  0.236980683465E-03  0.244328341873E-03  0.251903816665E-03
  0.259714171356E-03  0.267766688468E-03  0.276068876320E-03  0.284628476027E-03  0.293453468722E-03
  0.302552082994E-03  0.311932802561E-03  0.321604374182E-03  0.331575815811E-03  0.341856425009E-03
  0.352455787606E-03  0.363383786647E-03  0.374650611601E-03  0.386266767867E-03  0.398243086564E-03
  0.410590734634E-03  0.423321225254E-03  0.436446428569E-03  0.449978582760E-03  0.463930305459E-03
  0.478314605507E-03  0.493144895092E-03  0.508435002246E-03  0.524199183745E-03  0.540452138399E-03
  0.557209020760E-03  0.574485455247E-03  0.592297550721E-03  0.610661915500E-03  0.629595672848E-03
  0.649116476938E-03  0.669242529316E-03  0.689992595870E-03  0.711386024328E-03  0.733442762299E-03
  0.756183375870E-03  0.779629068785E-03  0.803801702211E-03  0.828723815127E-03  0.854418645336E-03
  0.880910151131E-03  0.908223033637E-03  0.936382759839E-03  0.965415586330E-03  0.995348583791E-03
  0.102620966223E-02  0.105802759702E-02  0.109083205568E-02  0.112465362563E-02  0.115952384259E-02
  0.119547522010E-02  0.123254127975E-02  0.127075658247E-02  0.131015676076E-02  0.135077855189E-02
  0.139265983219E-02  0.143583965232E-02  0.148035827370E-02  0.152625720606E-02  0.157357924612E-02
  0.162236851751E-02  0.167267051191E-02  0.172453213142E-02  0.177800173238E-02  0.183312917035E-02
  0.188996584666E-02  0.194856475632E-02  0.200898053742E-02  0.207126952207E-02  0.213548978892E-02
  0.220170121731E-02  0.226996554310E-02  0.234034641621E-02  0.241290945998E-02  0.248772233235E-02
  0.256485478889E-02  0.264437874790E-02  0.272636835739E-02  0.281090006426E-02  0.289805268553E-02
  0.298790748181E-02  0.308054823308E-02  0.317606131676E-02  0.327453578824E-02  0.337606346392E-02
  0.348073900673E-02  0.358866001443E-02  0.369992711055E-02  0.381464403820E-02  0.393291775672E-02
  0.405485854143E-02  0.418058008637E-02  0.431019961025E-02  0.444383796575E-02  0.458161975207E-02
  0.472367343111E-02  0.487013144713E-02  0.502113035022E-02  0.517681092346E-02  0.533731831417E-02
  0.550280216910E-02  0.567341677388E-02  0.584932119672E-02  0.603067943663E-02  0.621766057616E-02
  0.641043893893E-02  0.660919425193E-02  0.681411181298E-02  0.702538266325E-02  0.724320376516E-02
  0.746777818577E-02  0.769931528587E-02  0.793803091486E-02  0.818414761168E-02  0.843789481194E-02
  0.869950906143E-02  0.896923423628E-02  0.924732176981E-02  0.953403088649E-02  0.982962884302E-02
  0.101343911769E-01  0.104486019627E-01  0.107725540759E-01  0.111065494657E-01  0.114508994350E-01
  0.118059249300E-01  0.121719568383E-01  0.125493362962E-01  0.129384150054E-01  0.133395555595E-01
  0.137531317805E-01  0.141795290656E-01  0.146191447447E-01  0.150723884485E-01  0.155396824885E-01
  0.160214622481E-01  0.165181765857E-01  0.170302882501E-01  0.175582743089E-01  0.181026265896E-01
  0.186638521341E-01  0.192424736672E-01  0.198390300789E-01  0.204540769221E-01  0.210881869244E-01
  0.217419505159E-01  0.224159763731E-01  0.231108919784E-01  0.238273441969E-01  0.245659998709E-01
  0.253275464312E-01  0.261126925272E-01  0.269221686757E-01  0.277567279289E-01  0.286171465622E-01
  0.295042247822E-01  0.304187874551E-01  0.313616848575E-01  0.323337934479E-01  0.333360166616E-01
  0.343692857274E-01  0.354345605092E-01  0.365328303709E-01  0.376651150654E-01  0.388324656502E-01
  0.400359654276E-01  0.412767309116E-01  0.425559128214E-01  0.438746971026E-01  0.452343059760E-01
  0.466359990148E-01  0.480810742511E-01  0.495708693107E-01  0.511067625785E-01  0.526901743944E-01
  0.543225682781E-01  0.560054521868E-01  0.577403798021E-01  0.595289518497E-01  0.613728174499E-01
  0.632736754994E-01  0.652332760851E-01  0.672534219295E-01  0.693359698664E-01  0.714828323486E-01
  0.736959789856E-01  0.759774381107E-01  0.783292983779E-01  0.807537103867E-01  0.832528883333E-01
  0.858291116884E-01  0.884847268978E-01  0.912221491060E-01  0.940438638988E-01  0.969524290636E-01
  0.999504763637E-01  0.103040713324E+00  0.106225925021E+00  0.109508975883E+00  0.112892811477E+00
  0.116380460297E+00  0.119975035535E+00  0.123679736829E+00  0.127497851990E+00  0.131432758681E+00
  0.135487926058E+00  0.139666916348E+00  0.143973386362E+00  0.148411088922E+00  0.152983874192E+00
  0.157695690894E+00  0.162550587400E+00  0.167552712660E+00  0.172706316973E+00  0.178015752551E+00
  0.183485473863E+00  0.189120037733E+00  0.194924103148E+00  0.200902430756E+00  0.207059882003E+00
  0.213401417876E+00  0.219932097209E+00  0.226657074488E+00  0.233581597119E+00  0.240711002088E+00
  0.248050711960E+00  0.255606230125E+00  0.263383135250E+00  0.271387074823E+00  0.279623757716E+00
  0.288098945666E+00  0.296818443580E+00  0.305788088527E+00  0.315013737329E+00  0.324501252591E+00
  0.334256487054E+00  0.344285266096E+00  0.354593368251E+00  0.365186503546E+00  0.376070289494E+00
  0.387250224539E+00  0.398731658753E+00  0.410519761567E+00  0.422619486316E+00  0.435035531346E+00
  0.447772297459E+00  0.460833841416E+00  0.474223825255E+00  0.487945461146E+00  0.502001451520E+00
  0.516393924184E+00  0.531124362185E+00  0.546193528129E+00  0.561601382738E+00  0.577346997402E+00
  0.593428460536E+00  0.609842777569E+00  0.626585764467E+00  0.643651934714E+00  0.661034379768E+00
  0.678724643107E+00  0.696712588051E+00  0.714986259699E+00  0.733531741458E+00  0.752333006798E+00
  0.771371767086E+00  0.790627316531E+00  0.810076375587E+00  0.829692934367E+00  0.849448097982E+00
  0.869309936047E+00  0.889243338920E+00  0.909209883695E+00  0.929167713284E+00  0.949071432400E+00
  0.968872024595E+00  0.988516794899E+00  0.100794934290E+01  0.102710957137E+01  0.104593373563E+01
  0.106435453873E+01  0.108230127751E+01  0.109970004362E+01  0.111647398306E+01  0.113254361616E+01
  0.114782721819E+01  0.116224125794E+01  0.117570088856E+01  0.118812048038E+01  0.119941418045E+01
  0.120949647692E+01  0.121828273910E+01  0.122568969528E+01  0.123163580054E+01  0.123604143621E+01
  0.123882887141E+01  0.123992190545E+01  0.123924509966E+01  0.123672249782E+01  0.123227572920E+01
  0.122582138717E+01  0.121726758367E+01  0.120650959674E+01  0.119342455942E+01  0.117785650663E+01
  0.115980407415E+01  0.113935785798E+01  0.111664160819E+01  0.109179088502E+01  0.106495196316E+01
  0.103628065212E+01  0.100594104689E+01  0.974104222815E+00  0.940946884623E+00  0.906649984072E+00
  0.871397319939E+00  0.835374121422E+00  0.798765638307E+00  0.761755737310E+00  0.724525517943E+00
  0.687251956735E+00  0.650106590034E+00  0.613254247144E+00  0.576851847156E+00  0.541047274872E+00
  0.505978353121E+00  0.471771929957E+00  0.438543099423E+00  0.406394573568E+00  0.375416220430E+00
  0.345684777895E+00  0.317263749229E+00  0.290203477998E+00  0.264541394999E+00  0.240302423582E+00
  0.217499525102E+00  0.196134362947E+00  0.176198061828E+00  0.157672038784E+00  0.140528883444E+00
  0.124733267246E+00  0.110242864211E+00  0.970092692067E-01  0.849789030078E-01  0.740938966625E-01
  0.642929502896E-01  0.555121633424E-01  0.476858343660E-01  0.407472283747E-01  0.346293092883E-01
  0.292654336472E-01  0.245900004226E-01  0.205390504894E-01  0.170508085666E-01  0.140661603432E-01
  0.115290581912E-01  0.938685027015E-02  0.759052980389E-02  0.609490365565E-02  0.485868180901E-02
  0.384449176653E-02  0.301882402021E-02  0.235191649745E-02  0.181758716229E-02  0.139302472135E-02
  0.105854765809E-02  0.797341638674E-03  0.595184763144E-03  0.440169255722E-03  0.322427082540E-03
  0.233865738804E-03  0.167919139971E-03  0.119317253081E-03  0.838768739820E-04
 ae wavefunction
 -0.597520735656E-03 -0.616014833516E-03 -0.635081119710E-03 -0.654737283031E-03 -0.675001558229E-03
 -0.695892742789E-03 -0.717430214272E-03 -0.739633948112E-03 -0.762524536013E-03 -0.786123204893E-03
 -0.810451836374E-03 -0.835532986931E-03 -0.861389908572E-03 -0.888046570224E-03 -0.915527679723E-03
 -0.943858706490E-03 -0.973065904891E-03 -0.100317633831E-02 -0.103421790396E-02 -0.106621935841E-02
 -0.109921034397E-02 -0.113322141574E-02 -0.116828406964E-02 -0.120443077116E-02 -0.124169498502E-02
 -0.128011120577E-02 -0.131971498924E-02 -0.136054298498E-02 -0.140263296969E-02 -0.144602388164E-02
 -0.149075585607E-02 -0.153687026180E-02 -0.158440973876E-02 -0.163341823680E-02 -0.168394105554E-02
 -0.173602488552E-02 -0.178971785052E-02 -0.184506955110E-02 -0.190213110956E-02 -0.196095521618E-02
 -0.202159617672E-02 -0.208410996161E-02 -0.214855425628E-02 -0.221498851321E-02 -0.228347400544E-02
 -0.235407388162E-02 -0.242685322282E-02 -0.250187910081E-02 -0.257922063826E-02 -0.265894907056E-02
 -0.274113780956E-02 -0.282586250905E-02 -0.291320113230E-02 -0.300323402146E-02 -0.309604396902E-02
 -0.319171629130E-02 -0.329033890421E-02 -0.339200240092E-02 -0.349680013216E-02 -0.360482828849E-02
 -0.371618598495E-02 -0.383097534858E-02 -0.394930160766E-02 -0.407127318425E-02 -0.419700178895E-02
 -0.432660251835E-02 -0.446019395534E-02 -0.459789827220E-02 -0.473984133668E-02 -0.488615282074E-02
 -0.503696631265E-02 -0.519241943205E-02 -0.535265394823E-02 -0.551781590145E-02 -0.568805572804E-02
 -0.586352838838E-02 -0.604439349869E-02 -0.623081546636E-02 -0.642296362871E-02 -0.662101239568E-02
 -0.682514139614E-02 -0.703553562825E-02 -0.725238561349E-02 -0.747588755514E-02 -0.770624350027E-02
 -0.794366150648E-02 -0.818835581264E-02 -0.844054701391E-02 -0.870046224119E-02 -0.896833534525E-02
 -0.924440708505E-02 -0.952892532113E-02 -0.982214521332E-02 -0.101243294231E-01 -0.104357483216E-01
 -0.107566802015E-01 -0.110874114939E-01 -0.114282369916E-01 -0.117794600753E-01 -0.121413929463E-01
 -0.125143568642E-01 -0.128986823892E-01 -0.132947096298E-01 -0.137027884960E-01 -0.141232789571E-01
 -0.145565513055E-01 -0.150029864247E-01 -0.154629760632E-01 -0.159369231134E-01 -0.164252418953E-01
 -0.169283584453E-01 -0.174467108106E-01 -0.179807493472E-01 -0.185309370238E-01 -0.190977497300E-01
 -0.196816765884E-01 -0.202832202720E-01 -0.209028973251E-01 -0.215412384881E-01 -0.221987890263E-01
 -0.228761090618E-01 -0.235737739088E-01 -0.242923744114E-01 -0.250325172839E-01 -0.257948254530E-01
 -0.265799384020E-01 -0.273885125151E-01 -0.282212214235E-01 -0.290787563503E-01 -0.299618264551E-01
 -0.308711591773E-01 -0.318075005778E-01 -0.327716156756E-01 -0.337642887841E-01 -0.347863238386E-01
 -0.358385447208E-01 -0.369217955756E-01 -0.380369411190E-01 -0.391848669375E-01 -0.403664797757E-01
 -0.415827078128E-01 -0.428345009239E-01 -0.441228309265E-01 -0.454486918090E-01 -0.468130999400E-01
 -0.482170942559E-01 -0.496617364254E-01 -0.511481109857E-01 -0.526773254533E-01 -0.542505103996E-01
 -0.558688194954E-01 -0.575334295151E-01 -0.592455403026E-01 -0.610063746911E-01 -0.628171783757E-01
 -0.646792197341E-01 -0.665937895912E-01 -0.685622009228E-01 -0.705857884945E-01 -0.726659084303E-01
 -0.748039377061E-01 -0.770012735604E-01 -0.792593328232E-01 -0.815795511431E-01 -0.839633821262E-01
 -0.864122963562E-01 -0.889277803131E-01 -0.915113351615E-01 -0.941644754127E-01 -0.968887274514E-01
 -0.996856279129E-01 -0.102556721905E+00 -0.105503561068E+00 -0.108527701450E+00 -0.111630701213E+00
 -0.114814118121E+00 -0.118079506835E+00 -0.121428415983E+00 -0.124862384991E+00 -0.128382940679E+00
 -0.131991593587E+00 -0.135689834031E+00 -0.139479127873E+00 -0.143360911987E+00 -0.147336589402E+00
 -0.151407524116E+00 -0.155575035559E+00 -0.159840392683E+00 -0.164204807674E+00 -0.168669429259E+00
 -0.173235335590E+00 -0.177903526696E+00 -0.182674916475E+00 -0.187550324209E+00 -0.192530465591E+00
 -0.197615943236E+00 -0.202807236663E+00 -0.208104691727E+00 -0.213508509486E+00 -0.219018734481E+00
 -0.224635242419E+00 -0.230357727232E+00 -0.236185687513E+00 -0.242118412285E+00 -0.248154966137E+00
 -0.254294173660E+00 -0.260534603230E+00 -0.266874550063E+00 -0.273312018617E+00 -0.279844704268E+00
 -0.286469974289E+00 -0.293184848148E+00 -0.299985977106E+00 -0.306869623139E+00 -0.313831637201E+00
 -0.320867436840E+00 -0.327971983207E+00 -0.335139757462E+00 -0.342364736653E+00 -0.349640369077E+00
 -0.356959549196E+00 -0.364314592165E+00 -0.371697208025E+00 -0.379098475673E+00 -0.386508816654E+00
 -0.393917968905E+00 -0.401314960554E+00 -0.408688083878E+00 -0.416024869573E+00 -0.423312061481E+00
 -0.430535591913E+00 -0.437680557768E+00 -0.444731197617E+00 -0.451670869970E+00 -0.458482032932E+00
 -0.465146225483E+00 -0.471644050653E+00 -0.477955160836E+00 -0.484058245525E+00 -0.489931021807E+00
 -0.495550227880E+00 -0.500891619967E+00 -0.505929972970E+00 -0.510639085206E+00 -0.514991787638E+00
 -0.518959957972E+00 -0.522514540044E+00 -0.525625568897E+00 -0.528262201999E+00 -0.530392757028E+00
 -0.531984756669E+00 -0.533004980871E+00 -0.533419527022E+00 -0.533193878477E+00 -0.532292981882E+00
 -0.530681333744E+00 -0.528323076625E+00 -0.525182105402E+00 -0.521222183927E+00 -0.516407072438E+00
 -0.510700666027E+00 -0.504067144395E+00 -0.496471133100E+00 -0.487877876417E+00 -0.478253421844E+00
 -0.467564816227E+00 -0.455780313340E+00 -0.442869592659E+00 -0.428803988939E+00 -0.413556732056E+00
 -0.397103196421E+00 -0.379421159124E+00 -0.360491065758E+00 -0.340296302740E+00 -0.318823474741E+00
 -0.296062685658E+00 -0.272007821446E+00 -0.246656832924E+00 -0.220012016624E+00 -0.192080291620E+00
 -0.162873470240E+00 -0.132408520544E+00 -0.100707818388E+00 -0.677993868968E-01 -0.337171209731E-01
  0.149900576967E-02  0.378027548167E-01  0.751414614252E-01  0.113455903799E+00  0.152680210798E+00
  0.192741819712E+00  0.233561500390E+00  0.275053467797E+00  0.317125610135E+00  0.359679860058E+00
  0.402612723968E+00  0.445815947707E+00  0.489177227908E+00  0.532580787409E+00  0.575907567207E+00
  0.619034825511E+00  0.661835134723E+00  0.704175089366E+00  0.745914316330E+00  0.786905396657E+00
  0.826994972398E+00  0.866025784080E+00  0.903839035595E+00  0.940276533184E+00  0.975182363599E+00
  0.100840416890E+01  0.103979420101E+01  0.106921031291E+01  0.109651698211E+01  0.112158639435E+01
  0.114429957538E+01  0.116454754301E+01  0.118223243730E+01  0.119726859536E+01  0.120958353549E+01
  0.121911882836E+01  0.122583083506E+01  0.122969129806E+01  0.123068778041E+01  0.122882394348E+01
  0.122411966562E+01  0.121661099837E+01  0.120634996724E+01  0.119340421646E+01  0.117785650663E+01
  0.115980407415E+01  0.113935785798E+01  0.111664160819E+01  0.109179088502E+01  0.106495196316E+01
  0.103628065212E+01  0.100594104689E+01  0.974104222815E+00  0.940946884623E+00  0.906649984072E+00
  0.871397319939E+00  0.835374121422E+00  0.798765638307E+00  0.761755737310E+00  0.724525517943E+00
  0.687251956735E+00  0.650106590034E+00  0.613254247144E+00  0.576851847156E+00  0.541047274872E+00
  0.505978353121E+00  0.471771929957E+00  0.438543099423E+00  0.406394573568E+00  0.375416220430E+00
  0.345684777895E+00  0.317263749229E+00  0.290203477998E+00  0.264541394999E+00  0.240302423582E+00
  0.217499525102E+00  0.196134362947E+00  0.176198061828E+00  0.157672038784E+00  0.140528883444E+00
  0.124733267246E+00  0.110242864211E+00  0.970092692067E-01  0.849789030078E-01  0.740938966625E-01
  0.642929502896E-01  0.555121633424E-01  0.476858343660E-01  0.407472283747E-01  0.346293092883E-01
  0.292654336472E-01  0.245900004226E-01  0.205390504894E-01  0.170508085666E-01  0.140661603432E-01
  0.115290581912E-01  0.938685027015E-02  0.759052980389E-02  0.609490365565E-02  0.485868180901E-02
  0.384449176653E-02  0.301882402021E-02  0.235191649745E-02  0.181758716229E-02  0.139302472135E-02
  0.105854765809E-02  0.797341638674E-03  0.595184763144E-03  0.440169255722E-03  0.322427082540E-03
  0.233865738804E-03  0.167919139971E-03  0.119317253081E-03  0.838768739820E-04
 pseudo wavefunction
  0.149287264532E-03  0.153915961780E-03  0.158688173198E-03  0.163608348488E-03  0.168681075314E-03
  0.173911083583E-03  0.179303249855E-03  0.184862601887E-03  0.190594323325E-03  0.196503758534E-03
  0.202596417584E-03  0.208877981386E-03  0.215354306989E-03  0.222031433042E-03  0.228915585423E-03
  0.236013183046E-03  0.243330843847E-03  0.250875390949E-03  0.258653859033E-03  0.266673500887E-03
  0.274941794179E-03  0.283466448421E-03  0.292255412161E-03  0.301316880396E-03  0.310659302208E-03
  0.320291388649E-03  0.330222120856E-03  0.340460758433E-03  0.351016848076E-03  0.361900232483E-03
  0.373121059525E-03  0.384689791712E-03  0.396617215947E-03  0.408914453584E-03  0.421592970797E-03
  0.434664589272E-03  0.448141497230E-03  0.462036260792E-03  0.476361835694E-03  0.491131579368E-03
  0.506359263398E-03  0.522059086358E-03  0.538245687053E-03  0.554934158169E-03  0.572140060344E-03
  0.589879436677E-03  0.608168827689E-03  0.627025286742E-03  0.646466395943E-03  0.666510282537E-03
  0.687175635806E-03  0.708481724502E-03  0.730448414804E-03  0.753096188850E-03  0.776446163831E-03
  0.800520111679E-03  0.825340479372E-03  0.850930409858E-03  0.877313763640E-03  0.904515141018E-03
  0.932559905031E-03  0.961474205102E-03  0.991285001422E-03  0.102202009009E-02  0.105370812901E-02
  0.108637866466E-02  0.112006215959E-02  0.115479002084E-02  0.119059462924E-02  0.122750936958E-02
  0.126556866178E-02  0.130480799290E-02  0.134526395033E-02  0.138697425581E-02  0.142997780067E-02
  0.147431468206E-02  0.152002624034E-02  0.156715509763E-02  0.161574519755E-02  0.166584184616E-02
  0.171749175427E-02  0.177074308093E-02  0.182564547836E-02  0.188225013823E-02  0.194060983941E-02
  0.200077899716E-02  0.206281371386E-02  0.212677183135E-02  0.219271298481E-02  0.226069865839E-02
  0.233079224255E-02  0.240305909312E-02  0.247756659225E-02  0.255438421125E-02  0.263358357532E-02
  0.271523853038E-02  0.279942521185E-02  0.288622211568E-02  0.297571017153E-02  0.306797281818E-02
  0.316309608136E-02  0.326116865390E-02  0.336228197847E-02  0.346653033279E-02  0.357401091750E-02
  0.368482394682E-02  0.379907274193E-02  0.391686382730E-02  0.403830702998E-02  0.416351558199E-02
  0.429260622584E-02  0.442569932337E-02  0.456291896793E-02  0.470439310005E-02  0.485025362665E-02
  0.500063654406E-02  0.515568206466E-02  0.531553474766E-02  0.548034363374E-02  0.565026238400E-02
  0.582544942312E-02  0.600606808699E-02  0.619228677492E-02  0.638427910654E-02  0.658222408359E-02
  0.678630625665E-02  0.699671589712E-02  0.721364917445E-02  0.743730833887E-02  0.766790190983E-02
  0.790564487017E-02  0.815075886637E-02  0.840347241498E-02  0.866402111537E-02  0.893264786919E-02
  0.920960310647E-02  0.949514501878E-02  0.978953979957E-02  0.100930618920E-01  0.104059942442E-01
  0.107286285730E-01  0.110612656346E-01  0.114042155053E-01  0.117577978692E-01  0.121223423159E-01
  0.124981886470E-01  0.128856871918E-01  0.132851991333E-01  0.136970968437E-01  0.141217642303E-01
  0.145595970926E-01  0.150110034893E-01  0.154764041181E-01  0.159562327052E-01  0.164509364089E-01
  0.169609762337E-01  0.174868274583E-01  0.180289800763E-01  0.185879392504E-01  0.191642257800E-01
  0.197583765845E-01  0.203709451995E-01  0.210025022895E-01  0.216536361758E-01  0.223249533801E-01
  0.230170791853E-01  0.237306582125E-01  0.244663550163E-01  0.252248546976E-01  0.260068635351E-01
  0.268131096356E-01  0.276443436041E-01  0.285013392343E-01  0.293848942191E-01  0.302958308829E-01
  0.312349969356E-01  0.322032662490E-01  0.332015396567E-01  0.342307457764E-01  0.352918418582E-01
  0.363858146567E-01  0.375136813289E-01  0.386764903586E-01  0.398753225072E-01  0.411112917930E-01
  0.423855464971E-01  0.436992702002E-01  0.450536828471E-01  0.464500418430E-01  0.478896431795E-01
  0.493738225928E-01  0.509039567541E-01  0.524814644929E-01  0.541078080533E-01  0.557844943854E-01
  0.575130764706E-01  0.592951546825E-01  0.611323781834E-01  0.630264463582E-01  0.649791102833E-01
  0.669921742344E-01  0.690674972310E-01  0.712069946190E-01  0.734126396913E-01  0.756864653468E-01
  0.780305657876E-01  0.804470982541E-01  0.829382847987E-01  0.855064140965E-01  0.881538432937E-01
  0.908829998922E-01  0.936963836702E-01  0.965965686370E-01  0.995862050217E-01  0.102668021293E+00
  0.105844826210E+00  0.109119510899E+00  0.112495050956E+00  0.115974508577E+00  0.119561034692E+00
  0.123257871137E+00  0.127068352813E+00  0.130995909866E+00  0.135044069864E+00  0.139216459963E+00
  0.143516809065E+00  0.147948949948E+00  0.152516821374E+00  0.157224470150E+00  0.162076053138E+00
  0.167075839203E+00  0.172228211081E+00  0.177537667157E+00  0.183008823127E+00  0.188646413536E+00
  0.194455293162E+00  0.200440438234E+00  0.206606947444E+00  0.212960042735E+00  0.219505069837E+00
  0.226247498509E+00  0.233192922453E+00  0.240347058861E+00  0.247715747551E+00  0.255304949640E+00
  0.263120745703E+00  0.271169333359E+00  0.279457024220E+00  0.287990240131E+00  0.296775508635E+00
  0.305819457566E+00  0.315128808687E+00  0.324710370283E+00  0.334571028585E+00  0.344717737927E+00
  0.355157509503E+00  0.365897398589E+00  0.376944490085E+00  0.388305882222E+00  0.399988668265E+00
  0.411999916020E+00  0.424346644969E+00  0.437035800798E+00  0.450074227120E+00  0.463468634134E+00
  0.477225563977E+00  0.491351352496E+00  0.505852087151E+00  0.520733560756E+00  0.536001220738E+00
  0.551660113580E+00  0.567714824115E+00  0.584169409298E+00  0.601027326118E+00  0.618291353241E+00
  0.635963506045E+00  0.654044944641E+00  0.672535874521E+00  0.691435439472E+00  0.710741606410E+00
  0.730451041819E+00  0.750558979520E+00  0.771059079534E+00  0.791943277882E+00  0.813201627221E+00
  0.834822128345E+00  0.856790552660E+00  0.879090255907E+00  0.901701983576E+00  0.924603668626E+00
  0.947770222372E+00  0.971173319653E+00  0.994781179674E+00  0.101855834427E+01  0.104246545568E+01
  0.106645903633E+01  0.109049127353E+01  0.111450981256E+01  0.113845756190E+01  0.116227251507E+01
  0.118588759387E+01  0.120923051836E+01  0.123222370938E+01  0.125478422949E+01  0.127682376876E+01
  0.129824868171E+01  0.131896008123E+01  0.133885399537E+01  0.135782159136E+01  0.137574947023E+01
  0.139252003308E+01  0.140801191769E+01  0.142210050005E+01  0.143465845156E+01  0.144555633627E+01
  0.145466322656E+01  0.146184730715E+01  0.146697642856E+01  0.146991856085E+01  0.147054208773E+01
  0.146871586950E+01  0.146430899267E+01  0.145719011414E+01  0.144722630064E+01  0.143428126144E+01
  0.141821287573E+01  0.139886992933E+01  0.137608800034E+01  0.134968447568E+01  0.131945933684E+01
  0.128534070443E+01  0.124740983238E+01  0.120576700504E+01  0.116052357955E+01  0.111180014787E+01
  0.105972450117E+01  0.100442939748E+01  0.946050130165E+00  0.884721888104E+00  0.820576899290E+00
  0.000000000000E+00  0.000000000000E+00  0.000000000000E+00  0.000000000000E+00  0.000000000000E+00
  0.000000000000E+00  0.000000000000E+00  0.000000000000E+00  0.000000000000E+00  0.000000000000E+00
  0.000000000000E+00  0.000000000000E+00  0.000000000000E+00  0.000000000000E+00  0.000000000000E+00
  0.000000000000E+00  0.000000000000E+00  0.000000000000E+00  0.000000000000E+00  0.000000000000E+00
  0.000000000000E+00  0.000000000000E+00  0.000000000000E+00  0.000000000000E+00  0.000000000000E+00
  0.000000000000E+00  0.000000000000E+00  0.000000000000E+00  0.000000000000E+00  0.000000000000E+00
  0.000000000000E+00  0.000000000000E+00  0.000000000000E+00  0.000000000000E+00  0.000000000000E+00
  0.000000000000E+00  0.000000000000E+00  0.000000000000E+00  0.000000000000E+00  0.000000000000E+00
  0.000000000000E+00  0.000000000000E+00  0.000000000000E+00  0.000000000000E+00  0.000000000000E+00
  0.000000000000E+00  0.000000000000E+00  0.000000000000E+00  0.000000000000E+00  0.000000000000E+00
  0.000000000000E+00  0.000000000000E+00  0.000000000000E+00  0.000000000000E+00  0.000000000000E+00
  0.000000000000E+00  0.000000000000E+00  0.000000000000E+00  0.000000000000E+00
 ae wavefunction
 -0.729083209672E-03 -0.751649349047E-03 -0.774913661521E-03 -0.798897730612E-03 -0.823623806010E-03
 -0.849114824039E-03 -0.875394428824E-03 -0.902486994000E-03 -0.930417645165E-03 -0.959212282990E-03
 -0.988897607008E-03 -0.101950114019E-02 -0.105105125418E-02 -0.108357719540E-02 -0.111710911187E-02
 -0.115167808088E-02 -0.118731613750E-02 -0.122405630395E-02 -0.126193261985E-02 -0.130098017343E-02
 -0.134123513362E-02 -0.138273478321E-02 -0.142551755287E-02 -0.146962305637E-02 -0.151509212672E-02
 -0.156196685348E-02 -0.161029062118E-02 -0.166010814891E-02 -0.171146553104E-02 -0.176441027929E-02
 -0.181899136591E-02 -0.187525926833E-02 -0.193326601494E-02 -0.199306523250E-02 -0.205471219474E-02
 -0.211826387252E-02 -0.218377898553E-02 -0.225131805543E-02 -0.232094346064E-02 -0.239271949281E-02
 -0.246671241477E-02 -0.254299052053E-02 -0.262162419674E-02 -0.270268598615E-02 -0.278625065290E-02
 -0.287239524978E-02 -0.296119918739E-02 -0.305274430542E-02 -0.314711494598E-02 -0.324439802910E-02
 -0.334468313047E-02 -0.344806256137E-02 -0.355463145104E-02 -0.366448783139E-02 -0.377773272419E-02
 -0.389447023074E-02 -0.401480762428E-02 -0.413885544482E-02 -0.426672759708E-02 -0.439854145087E-02
 -0.453441794442E-02 -0.467448169108E-02 -0.481886108836E-02 -0.496768843069E-02 -0.512110002511E-02
 -0.527923631020E-02 -0.544224197844E-02 -0.561026610201E-02 -0.578346226222E-02 -0.596198868220E-02
 -0.614600836369E-02 -0.633568922741E-02 -0.653120425741E-02 -0.673273164906E-02 -0.694045496172E-02
 -0.715456327495E-02 -0.737525134920E-02 -0.760271979106E-02 -0.783717522243E-02 -0.807883045482E-02
 -0.832790466767E-02 -0.858462359194E-02 -0.884921969804E-02 -0.912193238914E-02 -0.940300819892E-02
 -0.969270099491E-02 -0.999127218693E-02 -0.102989909406E-01 -0.106161343962E-01 -0.109429878936E-01
 -0.112798452017E-01 -0.116270087547E-01 -0.119847898932E-01 -0.123535091110E-01 -0.127334963091E-01
 -0.131250910542E-01 -0.135286428434E-01 -0.139445113762E-01 -0.143730668309E-01 -0.148146901489E-01
 -0.152697733236E-01 -0.157387196972E-01 -0.162219442622E-01 -0.167198739708E-01 -0.172329480492E-01
 -0.177616183193E-01 -0.183063495261E-01 -0.188676196719E-01 -0.194459203559E-01 -0.200417571213E-01
 -0.206556498073E-01 -0.212881329077E-01 -0.219397559354E-01 -0.226110837929E-01 -0.233026971479E-01
 -0.240151928150E-01 -0.247491841418E-01 -0.255053014013E-01 -0.262841921881E-01 -0.270865218190E-01
 -0.279129737386E-01 -0.287642499279E-01 -0.296410713168E-01 -0.305441781989E-01 -0.314743306494E-01
 -0.324323089447E-01 -0.334189139825E-01 -0.344349677042E-01 -0.354813135155E-01 -0.365588167066E-01
 -0.376683648719E-01 -0.388108683252E-01 -0.399872605123E-01 -0.411984984191E-01 -0.424455629728E-01
 -0.437294594372E-01 -0.450512177983E-01 -0.464118931412E-01 -0.478125660136E-01 -0.492543427782E-01
 -0.507383559486E-01 -0.522657645086E-01 -0.538377542120E-01 -0.554555378617E-01 -0.571203555650E-01
 -0.588334749612E-01 -0.605961914223E-01 -0.624098282198E-01 -0.642757366573E-01 -0.661952961646E-01
 -0.681699143494E-01 -0.702010270034E-01 -0.722900980589E-01 -0.744386194909E-01 -0.766481111602E-01
 -0.789201205948E-01 -0.812562227004E-01 -0.836580193989E-01 -0.861271391862E-01 -0.886652366046E-01
 -0.912739916234E-01 -0.939551089186E-01 -0.967103170521E-01 -0.995413675274E-01 -0.102450033736E+00
 -0.105438109762E+00 -0.108507409056E+00 -0.111659762960E+00 -0.114897019067E+00 -0.118221039424E+00
 -0.121633698546E+00 -0.125136881245E+00 -0.128732480257E+00 -0.132422393652E+00 -0.136208522016E+00
 -0.140092765397E+00 -0.144077019991E+00 -0.148163174563E+00 -0.152353106573E+00 -0.156648678015E+00
 -0.161051730929E+00 -0.165564082581E+00 -0.170187520290E+00 -0.174923795884E+00 -0.179774619772E+00
 -0.184741654598E+00 -0.189826508473E+00 -0.195030727753E+00 -0.200355789352E+00 -0.205803092555E+00
 -0.211373950326E+00 -0.217069580074E+00 -0.222891093865E+00 -0.228839488046E+00 -0.234915632273E+00
 -0.241120257908E+00 -0.247453945770E+00 -0.253917113206E+00 -0.260510000481E+00 -0.267232656439E+00
 -0.274084923439E+00 -0.281066421524E+00 -0.288176531826E+00 -0.295414379162E+00 -0.302778813841E+00
 -0.310268392619E+00 -0.317881358857E+00 -0.325615621784E+00 -0.333468734958E+00 -0.341437873827E+00
 -0.349519812458E+00 -0.357710899405E+00 -0.366007032731E+00 -0.374403634195E+00 -0.382895622627E+00
 -0.391477386514E+00 -0.400142755825E+00 -0.408884973111E+00 -0.417696663935E+00 -0.426569806678E+00
 -0.435495701786E+00 -0.444464940534E+00 -0.453467373376E+00 -0.462492078017E+00 -0.471527327247E+00
 -0.480560556724E+00 -0.489578332797E+00 -0.498566320532E+00 -0.507509252095E+00 -0.516390895690E+00
 -0.525194025220E+00 -0.533900390901E+00 -0.542490691058E+00 -0.550944545351E+00 -0.559240469687E+00
 -0.567355853129E+00 -0.575266937086E+00 -0.582948797138E+00 -0.590375327807E+00 -0.597519230696E+00
 -0.604352006335E+00 -0.610843950174E+00 -0.616964153158E+00 -0.622680507307E+00 -0.627959716804E+00
 -0.632767315053E+00 -0.637067688231E+00 -0.640824105833E+00 -0.643998758765E+00 -0.646552805515E+00
 -0.648446426958E+00 -0.649638890362E+00 -0.650088623143E+00 -0.649753296946E+00 -0.648589922589E+00
 -0.646554956437E+00 -0.643604418705E+00 -0.639694024230E+00 -0.634779326152E+00 -0.628815872969E+00
 -0.621759379341E+00 -0.613565910987E+00 -0.604192083920E+00 -0.593595278243E+00 -0.581733866539E+00
 -0.568567456902E+00 -0.554057150415E+00 -0.538165812829E+00 -0.520858359985E+00 -0.502102056395E+00
 -0.481866826162E+00 -0.460125575274E+00 -0.436854524052E+00 -0.412033548341E+00 -0.385646527818E+00
 -0.357681699570E+00 -0.328132014912E+00 -0.296995497246E+00 -0.264275598616E+00 -0.229981552527E+00
 -0.194128720504E+00 -0.156738929856E+00 -0.117840800045E+00 -0.774700550017E-01 -0.356698185526E-01
  0.750911024754E-02  0.520080057472E-01  0.977599933650E-01  0.144689863247E+00  0.192713929836E+00
  0.241739951578E+00  0.291667130880E+00  0.342386221450E+00  0.393779776391E+00  0.445722570672E+00
  0.498082216023E+00  0.550719940917E+00  0.603491423401E+00  0.656247453193E+00  0.708834119610E+00
  0.761092270402E+00  0.812856234173E+00  0.863952194816E+00  0.914196945933E+00  0.963397771203E+00
  0.101135378135E+01  0.105785839028E+01  0.110270218821E+01  0.114567553457E+01  0.118657058572E+01
  0.122518283076E+01  0.126131236081E+01  0.129476506425E+01  0.132535386370E+01  0.135290002854E+01
  0.137723454665E+01  0.139819951999E+01  0.141564953178E+01  0.142945294282E+01  0.143949307283E+01
  0.144566923794E+01  0.144789761826E+01  0.144611193653E+01  0.144026393971E+01  0.143032366936E+01
  0.141627952013E+01  0.139813807923E+01  0.137592375061E+01  0.134967815869E+01  0.131945933684E+01
  0.128534070443E+01  0.124740983238E+01  0.120576700504E+01  0.116052357955E+01  0.111180014787E+01
  0.105972450117E+01  0.100442939748E+01  0.946050130165E+00  0.884721888104E+00  0.820576899290E+00
  0.000000000000E+00  0.000000000000E+00  0.000000000000E+00  0.000000000000E+00  0.000000000000E+00
  0.000000000000E+00  0.000000000000E+00  0.000000000000E+00  0.000000000000E+00  0.000000000000E+00
  0.000000000000E+00  0.000000000000E+00  0.000000000000E+00  0.000000000000E+00  0.000000000000E+00
  0.000000000000E+00  0.000000000000E+00  0.000000000000E+00  0.000000000000E+00  0.000000000000E+00
  0.000000000000E+00  0.000000000000E+00  0.000000000000E+00  0.000000000000E+00  0.000000000000E+00
  0.000000000000E+00  0.000000000000E+00  0.000000000000E+00  0.000000000000E+00  0.000000000000E+00
  0.000000000000E+00  0.000000000000E+00  0.000000000000E+00  0.000000000000E+00  0.000000000000E+00
  0.000000000000E+00  0.000000000000E+00  0.000000000000E+00  0.000000000000E+00  0.000000000000E+00
  0.000000000000E+00  0.000000000000E+00  0.000000000000E+00  0.000000000000E+00  0.000000000000E+00
  0.000000000000E+00  0.000000000000E+00  0.000000000000E+00  0.000000000000E+00  0.000000000000E+00
  0.000000000000E+00  0.000000000000E+00  0.000000000000E+00  0.000000000000E+00  0.000000000000E+00
  0.000000000000E+00  0.000000000000E+00  0.000000000000E+00  0.000000000000E+00
 pseudo wavefunction
  0.752962851338E-08  0.800378382909E-08  0.850779762486E-08  0.904355014707E-08  0.961304004488E-08
  0.102183918263E-07  0.108618637836E-07  0.115458564183E-07  0.122729213959E-07  0.130457710654E-07
  0.138672885778E-07  0.147405386413E-07  0.156687789550E-07  0.166554723617E-07  0.177042997658E-07
  0.188191738657E-07  0.200042537499E-07  0.212639604127E-07  0.226029932469E-07  0.240263475753E-07
  0.255393332859E-07  0.271475946404E-07  0.288571313308E-07  0.306743208613E-07  0.326059423397E-07
  0.346592017675E-07  0.368417589220E-07  0.391617559314E-07  0.416278476496E-07  0.442492339433E-07
  0.470356940127E-07  0.499976228729E-07  0.531460701333E-07  0.564927812186E-07  0.600502411854E-07
  0.638317212987E-07  0.678513285403E-07  0.721240582361E-07  0.766658499964E-07  0.814936471796E-07
  0.866254600999E-07  0.920804332158E-07  0.978789165489E-07  0.104042541601E-06  0.110594302052E-06
  0.117558639535E-06  0.124961534824E-06  0.132830604748E-06  0.141195205224E-06  0.150086540765E-06
  0.159537780893E-06  0.169584183878E-06  0.180263228271E-06  0.191614752717E-06  0.203681104579E-06
  0.216507297913E-06  0.230141181394E-06  0.244633616822E-06  0.260038668859E-06  0.276413806721E-06
  0.293820118571E-06  0.312322539407E-06  0.331990093307E-06  0.352896150925E-06  0.375118703202E-06
  0.398740652316E-06  0.423850120948E-06  0.450540781032E-06  0.478912203194E-06  0.509070228209E-06
  0.541127361841E-06  0.575203194548E-06  0.611424847622E-06  0.649927447412E-06  0.690854629421E-06
  0.734359074141E-06  0.780603076629E-06  0.829759151956E-06  0.882010678775E-06  0.937552583418E-06
  0.996592067075E-06  0.105934937876E-05  0.112605863695E-05  0.119696870298E-05  0.127234410940E-05
  0.135246604682E-05  0.143763341293E-05  0.152816392748E-05  0.162439531757E-05  0.172668657755E-05
  0.183541930821E-05  0.195099914035E-05  0.207385724800E-05  0.220445195690E-05  0.234327045426E-05
  0.249083060620E-05  0.264768288965E-05  0.281441244589E-05  0.299164126337E-05  0.318003049803E-05
  0.338028293970E-05  0.359314563383E-05  0.381941266828E-05  0.405992813561E-05  0.431558928194E-05
  0.458734985400E-05  0.487622365701E-05  0.518328833658E-05  0.550968939878E-05  0.585664448326E-05
  0.622544790550E-05  0.661747548514E-05  0.703418967816E-05  0.747714503240E-05  0.794799398652E-05
  0.844849303406E-05  0.898050927570E-05  0.954602738406E-05  0.101471570070E-04  0.107861406373E-04
  0.114653619773E-04  0.121873548308E-04  0.129548125549E-04  0.137705981058E-04  0.146377547190E-04
  0.155595172602E-04  0.165393242918E-04  0.175808308991E-04  0.186879223234E-04  0.198647284542E-04
  0.211156392335E-04  0.224453210296E-04  0.238587340425E-04  0.253611508040E-04  0.269581758435E-04
  0.286557665915E-04  0.304602555983E-04  0.323783741530E-04  0.344172773874E-04  0.365845709617E-04
  0.388883394291E-04  0.413371763863E-04  0.439402165215E-04  0.467071696797E-04  0.496483570721E-04
  0.527747497643E-04  0.560980095870E-04  0.596305326213E-04  0.633854954205E-04  0.673769041407E-04
  0.716196467630E-04  0.761295486016E-04  0.809234313048E-04  0.860191755674E-04  0.914357877897E-04
  0.971934709289E-04  0.103313699808E-03  0.109819301163E-03  0.116734538721E-03  0.124085203634E-03
  0.131898710597E-03  0.140204200010E-03  0.149032646567E-03  0.158416974664E-03  0.168392181075E-03
  0.178995465325E-03  0.190266368270E-03  0.202246919371E-03  0.214981793240E-03  0.228518476005E-03
  0.242907442134E-03  0.258202342363E-03  0.274460203425E-03  0.291741640318E-03  0.310111081902E-03
  0.329637010647E-03  0.350392217433E-03  0.372454072332E-03  0.395904812367E-03  0.420831847325E-03
  0.447328084730E-03  0.475492275189E-03  0.505429379367E-03  0.537250957953E-03  0.571075586029E-03
  0.607029293384E-03  0.645246032361E-03  0.685868174971E-03  0.729047041071E-03  0.774943459544E-03
  0.823728364518E-03  0.875583428796E-03  0.930701736798E-03  0.989288499449E-03  0.105156181360E-02
  0.111775346874E-02  0.118810980387E-02  0.126289261762E-02  0.134238013500E-02  0.142686803396E-02
  0.151667053577E-02  0.161212156280E-02  0.171357596801E-02  0.182141084035E-02  0.193602689077E-02
  0.205784992367E-02  0.218733239885E-02  0.232495508959E-02  0.247122884236E-02  0.262669644437E-02
  0.279193460540E-02  0.296755606047E-02  0.315421180068E-02  0.335259343959E-02  0.356343572315E-02
  0.378751919136E-02  0.402567300056E-02  0.427877791545E-02  0.454776948057E-02  0.483364138134E-02
  0.513744900526E-02  0.546031321451E-02  0.580342434142E-02  0.616804641918E-02  0.655552166023E-02
  0.696727519576E-02  0.740482008993E-02  0.786976264307E-02  0.836380799867E-02  0.888876606936E-02
  0.944655779765E-02  0.100392217675E-01  0.106689211832E-01  0.113379512331E-01  0.120487468535E-01
  0.128038909128E-01  0.136061228308E-01  0.144583476517E-01  0.153636455878E-01  0.163252820509E-01
  0.173467181874E-01  0.184316219323E-01  0.195838795979E-01  0.208076080081E-01  0.221071671919E-01
  0.234871736439E-01  0.249525141583E-01  0.265083602409E-01  0.281601830977E-01  0.299137691953E-01
  0.317752363827E-01  0.337510505586E-01  0.358480428594E-01  0.380734273362E-01  0.404348190776E-01
  0.429402527258E-01  0.455982013193E-01  0.484175953790E-01  0.514078421419E-01  0.545788448223E-01
  0.579410217613E-01  0.615053253010E-01  0.652832601886E-01  0.692869012881E-01  0.735289103389E-01
  0.780225514620E-01  0.827817050708E-01  0.878208797933E-01  0.931552219576E-01  0.988005221340E-01
  0.104773218159E+00  0.111090393991E+00  0.117769773676E+00  0.124829709599E+00  0.132289164118E+00
  0.140167683573E+00  0.148485363532E+00  0.157262804061E+00  0.166521053630E+00  0.176281540194E+00
  0.186565987799E+00  0.197396316976E+00  0.208794527011E+00  0.220782558075E+00  0.233382131038E+00
  0.246614562713E+00  0.260500554136E+00  0.275059949431E+00  0.290311462788E+00  0.306272371026E+00
  0.322958169336E+00  0.340382187887E+00  0.358555167210E+00  0.377484790611E+00  0.397175172321E+00
  0.417626300715E+00  0.438833436755E+00  0.460786468826E+00  0.483469226458E+00  0.506858756987E+00
  0.530924571142E+00  0.555627865829E+00  0.580920735077E+00  0.606745383251E+00  0.633033358197E+00
  0.659704826035E+00  0.686667913813E+00  0.713818151091E+00  0.741038046749E+00  0.768196842684E+00
  0.795150491427E+00  0.821741909815E+00  0.847801565250E+00  0.873148454352E+00  0.897591535317E+00
  0.920931674213E+00  0.942964160922E+00  0.963481841234E+00  0.982278896578E+00  0.999155280437E+00
  0.101392178922E+01  0.102640570369E+01  0.103645688320E+01  0.104395412861E+01  0.104881154868E+01
  0.105098457118E+01  0.105047513348E+01  0.104733547273E+01  0.104166981827E+01  0.103363317739E+01
  0.102342631388E+01  0.101128596374E+01  0.997469337787E+00  0.982232054452E+00  0.965798862161E+00
  0.948326885685E+00  0.929857740007E+00  0.910376756217E+00  0.889931211092E+00  0.868589370191E+00
  0.846422628036E+00  0.823505139034E+00  0.799913440677E+00  0.775726063270E+00  0.751023120951E+00
  0.725885884100E+00  0.700396329094E+00  0.674636663409E+00  0.648688827398E+00  0.622633975262E+00
  0.596551942503E+00  0.570520709495E+00  0.544615874674E+00  0.518910149643E+00  0.493472911778E+00
  0.468369782982E+00  0.443662310964E+00  0.419407716199E+00  0.395658728409E+00  0.372463509394E+00
  0.349865656830E+00  0.327904278897E+00  0.306614125743E+00  0.286025761031E+00  0.266165755436E+00
  0.247056883897E+00  0.228718309732E+00  0.211165741379E+00  0.194411551281E+00  0.178464851218E+00
  0.163331523679E+00  0.149014214350E+00  0.135512295736E+00  0.122821815920E+00  0.110935448851E+00
  0.998424632451E-01  0.895287259382E-01  0.799767528162E-01  0.711658164898E-01  0.630721153715E-01
  0.556690042113E-01  0.489272819610E-01  0.428155293760E-01  0.373004862242E-01  0.323474563917E-01
  0.279207285099E-01  0.239839998444E-01  0.205007919343E-01  0.174348476788E-01  0.147505010870E-01
  0.124130125945E-01  0.103888646037E-01  0.864601362694E-02  0.715409704532E-02  0.588459398879E-02
  0.481094116769E-02  0.390860561887E-02  0.315511726518E-02  0.253006492169E-02
 ae wavefunction
  0.638386639213E-07  0.677120666098E-07  0.717878072451E-07  0.760781595650E-07  0.805960733267E-07
  0.853552170595E-07  0.903700209180E-07  0.956557259439E-07  0.101228432636E-06  0.107105154623E-06
  0.113303874994E-06  0.119843604950E-06  0.126744448329E-06  0.134027667299E-06  0.141715753807E-06
  0.149832504786E-06  0.158403101771E-06  0.167454195758E-06  0.177013996743E-06  0.187112369092E-06
  0.197780932571E-06  0.209053169575E-06  0.220964538952E-06  0.233552596751E-06  0.246857124576E-06
  0.260920265372E-06  0.275786668376E-06  0.291503641820E-06  0.308121317188E-06  0.325692819370E-06
  0.344274454503E-06  0.363925900032E-06  0.384710416104E-06  0.406695062606E-06  0.429950934185E-06
  0.454553407675E-06  0.480582404730E-06  0.508122674102E-06  0.537264086497E-06  0.568101949333E-06
  0.600737346455E-06  0.635277488782E-06  0.671836096954E-06  0.710533799931E-06  0.751498565118E-06
  0.794866149769E-06  0.840780581229E-06  0.889394672333E-06  0.940870563053E-06  0.995380297324E-06
  0.105310643829E-05  0.111424271959E-05  0.117899473638E-05  0.124758068441E-05  0.132023213453E-05
  0.139719487448E-05  0.147872977789E-05  0.156511375485E-05  0.165664073353E-05  0.175362272646E-05
  0.185639095844E-05  0.196529704647E-05  0.208071428133E-05  0.220303897134E-05  0.233269186659E-05
  0.247011968932E-05  0.261579674643E-05  0.277022664920E-05  0.293394412301E-05  0.310751696496E-05
  0.329154809020E-05  0.348667772084E-05  0.369358570339E-05  0.391299399082E-05  0.414566924952E-05
  0.439242565064E-05  0.465412783273E-05  0.493169403578E-05  0.522609944888E-05  0.553837975004E-05
  0.586963488180E-05  0.622103304819E-05  0.659381496692E-05  0.698929839120E-05  0.740888290003E-05
  0.785405501000E-05  0.832639356092E-05  0.882757549223E-05  0.935938194569E-05  0.992370473951E-05
  0.105225532852E-04  0.111580618774E-04  0.118324974816E-04  0.125482680106E-04  0.133079310509E-04
  0.141142032120E-04  0.149699700161E-04  0.158782963774E-04  0.168424377945E-04  0.178658521586E-04
  0.189522123829E-04  0.201054197150E-04  0.213296179680E-04  0.226292085552E-04  0.240088665173E-04
  0.254735574787E-04  0.270285557122E-04  0.286794632690E-04  0.304322303255E-04  0.322931767720E-04
  0.342690151097E-04  0.363668748141E-04  0.385943281325E-04  0.409594175222E-04  0.434706847497E-04
  0.461372017751E-04  0.489686035594E-04  0.519751228551E-04  0.551676271443E-04  0.585576578449E-04
  0.621574719050E-04  0.659800859751E-04  0.700393231841E-04  0.743498629370E-04  0.789272935765E-04
  0.837881683782E-04  0.889500649094E-04  0.944316479659E-04  0.100252736399E-03  0.106434373973E-03
  0.112998904506E-03  0.119970051544E-03  0.127373002932E-03  0.135234500388E-03  0.143582934591E-03
  0.152448445901E-03  0.161863031201E-03  0.171860657139E-03  0.182477380168E-03  0.193751473770E-03
  0.205723563284E-03  0.218436768816E-03  0.231936856629E-03  0.246272399559E-03  0.261494946963E-03
  0.277659204731E-03  0.294823225954E-03  0.313048612853E-03  0.332400730601E-03  0.352948933708E-03
  0.374766805714E-03  0.397932412867E-03  0.422528572659E-03  0.448643137946E-03  0.476369297630E-03
  0.505805894698E-03  0.537057762678E-03  0.570236081455E-03  0.605458753500E-03  0.642850801677E-03
  0.682544789705E-03  0.724681266542E-03  0.769409235969E-03  0.816886652643E-03  0.867280946102E-03
  0.920769574046E-03  0.977540606618E-03  0.103779334296E-02  0.110173896205E-02  0.116960120927E-02
  0.124161712057E-02  0.131803778622E-02  0.139912915586E-02  0.148517288705E-02  0.157646723931E-02
  0.167332801580E-02  0.177608955496E-02  0.188510577427E-02  0.200075126869E-02  0.212342246608E-02
  0.225353884217E-02  0.239154419773E-02  0.253790800048E-02  0.269312679454E-02  0.285772568023E-02
  0.303225986681E-02  0.321731630138E-02  0.341351537651E-02  0.362151271972E-02  0.384200106773E-02
  0.407571222831E-02  0.432341913284E-02  0.458593798242E-02  0.486413049033E-02  0.515890622389E-02
  0.547122504814E-02  0.580209967435E-02  0.615259831549E-02  0.652384745141E-02  0.691703470557E-02
  0.733341183551E-02  0.777429783849E-02  0.824108217425E-02  0.873522810494E-02  0.925827615420E-02
  0.981184768427E-02  0.103976485921E-01  0.110174731224E-01  0.116732077973E-01  0.123668354595E-01
  0.131004394267E-01  0.138762077531E-01  0.146964375933E-01  0.155635396630E-01  0.164800427894E-01
  0.174485985435E-01  0.184719859442E-01  0.195531162243E-01  0.206950376447E-01  0.219009403439E-01
  0.231741612054E-01  0.245181887267E-01  0.259366678676E-01  0.274334048580E-01  0.290123719384E-01
  0.306777120064E-01  0.324337431404E-01  0.342849629649E-01  0.362360528249E-01  0.382918817266E-01
  0.404575100058E-01  0.427381926739E-01  0.451393823953E-01  0.476667320408E-01  0.503260967601E-01
  0.531235355113E-01  0.560653119826E-01  0.591578948356E-01  0.624079571946E-01  0.658223753055E-01
  0.694082262783E-01  0.731727848255E-01  0.771235189069E-01  0.812680841787E-01  0.856143171503E-01
  0.901702269413E-01  0.949439855302E-01  0.999439163813E-01  0.105178481335E+00  0.110656265641E+00
  0.116385961018E+00  0.122376346613E+00  0.128636267742E+00  0.135174612283E+00  0.142000284618E+00
  0.149122176983E+00  0.156549138135E+00  0.164289939223E+00  0.172353236755E+00  0.180747532597E+00
  0.189481130902E+00  0.198562091940E+00  0.207998182760E+00  0.217796824688E+00  0.227965037650E+00
  0.238509381351E+00  0.249435893385E+00  0.260750024335E+00  0.272456570018E+00  0.284559600997E+00
  0.297062389561E+00  0.309967334388E+00  0.323275883101E+00  0.336988453007E+00  0.351104350257E+00
  0.365621687697E+00  0.380537301687E+00  0.395846668118E+00  0.411543817854E+00  0.427621251850E+00
  0.444069856154E+00  0.460878817099E+00  0.478035537116E+00  0.495525551829E+00  0.513332449523E+00
  0.531437794737E+00  0.549821058757E+00  0.568459561218E+00  0.587328429214E+00  0.606400583216E+00
  0.625646762959E+00  0.645035611035E+00  0.664533836135E+00  0.684106478844E+00  0.703717295005E+00
  0.723329245581E+00  0.742905028245E+00  0.762407504096E+00  0.781799788848E+00  0.801044754676E+00
  0.820103805368E+00  0.838935067712E+00  0.857491488133E+00  0.875719531092E+00  0.893559049238E+00
  0.910944425185E+00  0.927806520797E+00  0.944074705985E+00  0.959678418621E+00  0.974548107157E+00
  0.988615705671E+00  0.100181488244E+01  0.101408124227E+01  0.102535258245E+01  0.103556923040E+01
  0.104467445198E+01  0.105261490827E+01  0.105934112745E+01  0.106480796926E+01  0.106897505848E+01
  0.107180717579E+01  0.107327459614E+01  0.107335336887E+01  0.107202554107E+01  0.106927932012E+01
  0.106510918010E+01  0.105951591109E+01  0.105250661755E+01  0.104409466464E+01  0.103429957814E+01
  0.102314690268E+01  0.101066801918E+01  0.996899929019E+00  0.981885007088E+00  0.965670729847E+00
  0.948309381061E+00  0.929857740007E+00  0.910376756217E+00  0.889931211092E+00  0.868589370191E+00
  0.846422628036E+00  0.823505139034E+00  0.799913440677E+00  0.775726063270E+00  0.751023120951E+00
  0.725885884100E+00  0.700396329094E+00  0.674636663409E+00  0.648688827398E+00  0.622633975262E+00
  0.596551942503E+00  0.570520709495E+00  0.544615874674E+00  0.518910149643E+00  0.493472911778E+00
  0.468369782982E+00  0.443662310964E+00  0.419407716199E+00  0.395658728409E+00  0.372463509394E+00
  0.349865656830E+00  0.327904278897E+00  0.306614125743E+00  0.286025761031E+00  0.266165755436E+00
  0.247056883897E+00  0.228718309732E+00  0.211165741379E+00  0.194411551281E+00  0.178464851218E+00
  0.163331523679E+00  0.149014214350E+00  0.135512295736E+00  0.122821815920E+00  0.110935448851E+00
  0.998424632451E-01  0.895287259382E-01  0.799767528162E-01  0.711658164898E-01  0.630721153715E-01
  0.556690042113E-01  0.489272819610E-01  0.428155293760E-01  0.373004862242E-01  0.323474563917E-01
  0.279207285099E-01  0.239839998444E-01  0.205007919343E-01  0.174348476788E-01  0.147505010870E-01
  0.124130125945E-01  0.103888646037E-01  0.864601362694E-02  0.715409704532E-02  0.588459398879E-02
  0.481094116769E-02  0.390860561887E-02  0.315511726518E-02  0.253006492169E-02
 pseudo wavefunction
  0.122159959323E-07  0.129852608960E-07  0.138029679667E-07  0.146721676378E-07  0.155961024983E-07
  0.165782193291E-07  0.176221819618E-07  0.187318849465E-07  0.199114680805E-07  0.211653318523E-07
  0.224981538578E-07  0.239149062500E-07  0.254208742880E-07  0.270216760541E-07  0.287232834119E-07
  0.305320442849E-07  0.324547063376E-07  0.344984421482E-07  0.366708759658E-07  0.389801121532E-07
  0.414347654207E-07  0.440439929637E-07  0.468175286238E-07  0.497657192013E-07  0.528995630546E-07
  0.562307511302E-07  0.597717105759E-07  0.635356511009E-07  0.675366142557E-07  0.717895258138E-07
  0.763102514540E-07  0.811156559473E-07  0.862236660718E-07  0.916533374895E-07  0.974249258342E-07
  0.103559962276E-06  0.110081333844E-06  0.117013368808E-06  0.124381927435E-06  0.132214498465E-06
  0.140540301654E-06  0.149390396783E-06  0.158797799528E-06  0.168797604625E-06  0.179427116792E-06
  0.190725989899E-06  0.202736374894E-06  0.215503077050E-06  0.229073723116E-06  0.243498938988E-06
  0.258832538570E-06  0.275131724531E-06  0.292457301701E-06  0.310873903906E-06  0.330450235085E-06
  0.351259325598E-06  0.373378804661E-06  0.396891189951E-06  0.421884195439E-06  0.448451058609E-06
  0.476690888286E-06  0.506709034362E-06  0.538617480810E-06  0.572535263445E-06  0.608588913986E-06
  0.646912932093E-06  0.687650287116E-06  0.730952951452E-06  0.776982467480E-06  0.825910550196E-06
  0.877919727809E-06  0.933204022660E-06  0.991969675029E-06  0.105443591252E-05  0.112083576790E-05
  0.119141694841E-05  0.126644275988E-05  0.134619308896E-05  0.143096544727E-05  0.152107608124E-05
  0.161686115190E-05  0.171867798891E-05  0.182690642362E-05  0.194195020597E-05  0.206423851074E-05
  0.219422753854E-05  0.233240221772E-05  0.247927801332E-05  0.263540285007E-05  0.280135915640E-05
  0.297776603716E-05  0.316528158320E-05  0.336460532634E-05  0.357648084899E-05  0.380169855802E-05
  0.404109863336E-05  0.429557416229E-05  0.456607447097E-05  0.485360866594E-05  0.515924939849E-05
  0.548413686611E-05  0.582948306592E-05  0.619657631592E-05  0.658678606095E-05  0.700156798128E-05
  0.744246942284E-05  0.791113516942E-05  0.840931357835E-05  0.893886310246E-05  0.950175922282E-05
  0.101001018179E-04  0.107361229967E-04  0.114121954256E-04  0.121308411785E-04  0.128947411453E-04
  0.137067450324E-04  0.145698819923E-04  0.154873719236E-04  0.164626374814E-04  0.174993168448E-04
  0.186012772877E-04  0.197726296042E-04  0.210177434427E-04  0.223412636044E-04  0.237481273695E-04
  0.252435829126E-04  0.268332088787E-04  0.285229351914E-04  0.303190651709E-04  0.322282990445E-04
  0.342577589378E-04  0.364150154380E-04  0.387081158313E-04  0.411456141157E-04  0.437366029054E-04
  0.464907473417E-04  0.494183211397E-04  0.525302449040E-04  0.558381268553E-04  0.593543061216E-04
  0.630918987537E-04  0.670648466372E-04  0.712879694824E-04  0.757770200873E-04  0.805487430773E-04
  0.856209373428E-04  0.910125224049E-04  0.967436089578E-04  0.102835573850E-03  0.109311139784E-03
  0.116194460027E-03  0.123511208460E-03  0.131288675280E-03  0.139555868730E-03  0.148343623228E-03
  0.157684714298E-03  0.167613980720E-03  0.178168454378E-03  0.189387498257E-03  0.201312953131E-03
  0.213989293461E-03  0.227463793104E-03  0.241786701434E-03  0.257011430532E-03  0.273194754140E-03
  0.290397019119E-03  0.308682370189E-03  0.328118988792E-03  0.348779346953E-03  0.370740477085E-03
  0.394084258733E-03  0.418897723326E-03  0.445273378047E-03  0.473309550032E-03  0.503110752160E-03
  0.534788071792E-03  0.568459583879E-03  0.604250789975E-03  0.642295084757E-03  0.682734251781E-03
  0.725718990286E-03  0.771409474978E-03  0.819975950858E-03  0.871599365263E-03  0.926472039429E-03
  0.984798382042E-03  0.104679564737E-02  0.111269474074E-02  0.118274107429E-02  0.125719547615E-02
  0.133633515618E-02  0.142045473205E-02  0.150986731912E-02  0.160490568806E-02  0.170592349462E-02
  0.181329658563E-02  0.192742438613E-02  0.204873137252E-02  0.217766863696E-02  0.231471554855E-02
  0.246038151726E-02  0.261520786666E-02  0.277976982222E-02  0.295467862202E-02  0.314058375718E-02
  0.333817534992E-02  0.354818667728E-02  0.377139684937E-02  0.400863365104E-02  0.426077655678E-02
  0.452875992904E-02  0.481357641049E-02  0.511628052166E-02  0.543799247574E-02  0.577990222302E-02
  0.614327373805E-02  0.652944956331E-02  0.693985562371E-02  0.737600632707E-02  0.783950996638E-02
  0.833207444028E-02  0.885551330903E-02  0.941175220386E-02  0.100028356084E-01  0.106309340313E-01
  0.112983515908E-01  0.120075340312E-01  0.127610771926E-01  0.135617359570E-01  0.144124336921E-01
  0.153162722158E-01  0.162765423064E-01  0.172967347795E-01  0.183805521583E-01  0.195319209585E-01
  0.207550046135E-01  0.220542170616E-01  0.234342370183E-01  0.249000229550E-01  0.264568288041E-01
  0.281102204089E-01  0.298660927343E-01  0.317306878513E-01  0.337106137045E-01  0.358128636693E-01
  0.380448368978E-01  0.404143594481E-01  0.429297061841E-01  0.455996234250E-01  0.484333523121E-01
  0.514406528512E-01  0.546318285750E-01  0.580177517529E-01  0.616098890606E-01  0.654203276001E-01
  0.694618011375E-01  0.737477164010E-01  0.782921792489E-01  0.831100204872E-01  0.882168210746E-01
  0.936289364111E-01  0.993635193567E-01  0.105438541573E+00  0.111872812720E+00  0.118685996964E+00
  0.125898626196E+00  0.133532109242E+00  0.141608736300E+00  0.150151677673E+00  0.159184975828E+00
  0.168733529608E+00  0.178823069353E+00  0.189480121499E+00  0.200731961076E+00  0.212606550354E+00
  0.225132461697E+00  0.238338782499E+00  0.252254999845E+00  0.266910862366E+00  0.282336216478E+00
  0.298560814030E+00  0.315614088098E+00  0.333524893493E+00  0.352321208309E+00  0.372029792642E+00
  0.392675800489E+00  0.414282340660E+00  0.436869982528E+00  0.460456202415E+00  0.485054766544E+00
  0.510675046706E+00  0.537321265177E+00  0.564991665958E+00  0.593677610242E+00  0.623362594997E+00
  0.654021194942E+00  0.685617929901E+00  0.718106061631E+00  0.751426326820E+00  0.785505616075E+00
  0.820255612394E+00  0.855571406957E+00  0.891330115034E+00  0.927389520477E+00  0.963586783565E+00
  0.999737253968E+00  0.103563343802E+01  0.107104417745E+01  0.110571410459E+01  0.113936344714E+01
  0.117168826254E+01  0.120236118802E+01  0.123103279665E+01  0.125733365034E+01  0.128087713836E+01
  0.130126318110E+01  0.131808286432E+01  0.133092404516E+01  0.133937793767E+01  0.134304664057E+01
  0.134155151095E+01  0.133454221566E+01  0.132170620523E+01  0.130277825597E+01  0.127754961625E+01
  0.124587617929E+01  0.120768499456E+01  0.116297833630E+01  0.111183448711E+01  0.105440438882E+01
  0.990903389592E+00  0.921597505581E+00  0.846783953274E+00  0.766766228250E+00  0.681824737259E+00
  0.592184950507E+00  0.497986573192E+00  0.399311932267E+00  0.296297038202E+00  0.189115717116E+00
  0.000000000000E+00  0.000000000000E+00  0.000000000000E+00  0.000000000000E+00  0.000000000000E+00
  0.000000000000E+00  0.000000000000E+00  0.000000000000E+00  0.000000000000E+00  0.000000000000E+00
  0.000000000000E+00  0.000000000000E+00  0.000000000000E+00  0.000000000000E+00  0.000000000000E+00
  0.000000000000E+00  0.000000000000E+00  0.000000000000E+00  0.000000000000E+00  0.000000000000E+00
  0.000000000000E+00  0.000000000000E+00  0.000000000000E+00  0.000000000000E+00  0.000000000000E+00
  0.000000000000E+00  0.000000000000E+00  0.000000000000E+00  0.000000000000E+00  0.000000000000E+00
  0.000000000000E+00  0.000000000000E+00  0.000000000000E+00  0.000000000000E+00  0.000000000000E+00
  0.000000000000E+00  0.000000000000E+00  0.000000000000E+00  0.000000000000E+00  0.000000000000E+00
  0.000000000000E+00  0.000000000000E+00  0.000000000000E+00  0.000000000000E+00  0.000000000000E+00
  0.000000000000E+00  0.000000000000E+00  0.000000000000E+00  0.000000000000E+00  0.000000000000E+00
  0.000000000000E+00  0.000000000000E+00  0.000000000000E+00  0.000000000000E+00  0.000000000000E+00
  0.000000000000E+00  0.000000000000E+00  0.000000000000E+00  0.000000000000E+00
 ae wavefunction
  0.105938862008E-06  0.112366699779E-06  0.119130313309E-06  0.126250070647E-06  0.133747461684E-06
  0.141645169102E-06  0.149967139484E-06  0.158738665069E-06  0.167986464347E-06  0.177738771134E-06
  0.188025428049E-06  0.198877983841E-06  0.210329800478E-06  0.222416162149E-06  0.235174393849E-06
  0.248643986170E-06  0.262866727427E-06  0.277886844486E-06  0.293751151342E-06  0.310509207392E-06
  0.328213485094E-06  0.346919547905E-06  0.366686239167E-06  0.387575882507E-06  0.409654494811E-06
  0.432992011580E-06  0.457662527464E-06  0.483744549670E-06  0.511321270549E-06  0.540480849963E-06
  0.571316726995E-06  0.603927935371E-06  0.638419454243E-06  0.674902568380E-06  0.713495258166E-06
  0.754322610207E-06  0.797517253170E-06  0.843219826211E-06  0.891579468290E-06  0.942754340507E-06
  0.996912189846E-06  0.105423093108E-05  0.111489928177E-05  0.117911742371E-05  0.124709771673E-05
  0.131906544782E-05  0.139525962802E-05  0.147593384777E-05  0.156135717577E-05  0.165181511616E-05
  0.174761062957E-05  0.184906521387E-05  0.195652005094E-05  0.207033723318E-05  0.219090104874E-05
  0.231861937845E-05  0.245392513798E-05  0.259727785526E-05  0.274916529942E-05  0.291010525037E-05
  0.308064737041E-05  0.326137516243E-05  0.345290809660E-05  0.365590384034E-05  0.387106062183E-05
  0.409911976960E-05  0.434086838850E-05  0.459714221356E-05  0.486882861313E-05  0.515686983762E-05
  0.546226641521E-05  0.578608078447E-05  0.612944114001E-05  0.649354555140E-05  0.687966628946E-05
  0.728915445842E-05  0.772344491230E-05  0.818406145589E-05  0.867262240007E-05  0.919084643612E-05
  0.974055890121E-05  0.103236984114E-04  0.109423239180E-04  0.115986222114E-04  0.122949158706E-04
  0.130336717460E-04  0.138175098969E-04  0.146492131773E-04  0.155317373630E-04  0.164682218956E-04
  0.174620013609E-04  0.185166175856E-04  0.196358325618E-04  0.208236421810E-04  0.220842907154E-04
  0.234222863332E-04  0.248424175098E-04  0.263497704187E-04  0.279497475042E-04  0.296480870776E-04
  0.314508842750E-04  0.333646131489E-04  0.353961502845E-04  0.375527997493E-04  0.398423196899E-04
  0.422729504704E-04  0.448534446507E-04  0.475930987318E-04  0.505017869206E-04  0.535899969563E-04
  0.568688681067E-04  0.603502315992E-04  0.640466534300E-04  0.679714798974E-04  0.721388858913E-04
  0.765639261441E-04  0.812625896736E-04  0.862518575166E-04  0.915497640262E-04  0.971754619331E-04
  0.103149291369E-03  0.109492853170E-03  0.116229086497E-03  0.123382351476E-03  0.130978516582E-03
  0.139045051565E-03  0.147611125953E-03  0.156707713487E-03  0.166367703021E-03  0.176626016105E-03
  0.187519731675E-03  0.199088218267E-03  0.211373274356E-03  0.224419277002E-03  0.238273339632E-03
  0.252985479187E-03  0.268608793409E-03  0.285199648761E-03  0.302817879615E-03  0.321526999380E-03
  0.341394424216E-03  0.362491710199E-03  0.384894804514E-03  0.408684311659E-03  0.433945775445E-03
  0.460769977706E-03  0.489253254673E-03  0.519497832062E-03  0.551612179856E-03  0.585711387966E-03
  0.621917563948E-03  0.660360253938E-03  0.701176888225E-03  0.744513252695E-03  0.790523987729E-03
  0.839373115921E-03  0.891234600334E-03  0.946292934868E-03  0.100474376852E-02  0.106679456539E-02
  0.113266530233E-02  0.120258920621E-02  0.127681353303E-02  0.135560039092E-02  0.143922760947E-02
  0.152798965770E-02  0.162219861334E-02  0.172218518571E-02  0.182829979541E-02  0.194091371327E-02
  0.206042026166E-02  0.218723608141E-02  0.232180246721E-02  0.246458677512E-02  0.261608390551E-02
  0.277681786497E-02  0.294734341097E-02  0.312824778296E-02  0.332015252408E-02  0.352371539721E-02
  0.373963239976E-02  0.396863988145E-02  0.421151676937E-02  0.446908690483E-02  0.474222149663E-02
  0.503184169533E-02  0.533892129325E-02  0.566448955497E-02  0.600963418320E-02  0.637550442474E-02
  0.676331432146E-02  0.717434611104E-02  0.760995378246E-02  0.807156679048E-02  0.856069393424E-02
  0.907892740405E-02  0.962794700086E-02  0.102095245322E-01  0.108255283887E-01  0.114779283043E-01
  0.121688003037E-01  0.129003318384E-01  0.136748271161E-01  0.144947126209E-01  0.153625428293E-01
  0.162810061191E-01  0.172529308721E-01  0.182812917671E-01  0.193692162627E-01  0.205199912631E-01
  0.217370699637E-01  0.230240788682E-01  0.243848249691E-01  0.258233030819E-01  0.273437033191E-01
  0.289504186912E-01  0.306480528172E-01  0.324414277249E-01  0.343355917198E-01  0.363358272967E-01
  0.384476590669E-01  0.406768616675E-01  0.430294676191E-01  0.455117750924E-01  0.481303555385E-01
  0.508920611360E-01  0.538040320032E-01  0.568737031138E-01  0.601088108560E-01  0.635173991644E-01
  0.671078251495E-01  0.708887641427E-01  0.748692140698E-01  0.790584990574E-01  0.834662721690E-01
  0.881025171610E-01  0.929775491429E-01  0.981020140134E-01  0.103486886538E+00  0.109143466931E+00
  0.115083375780E+00  0.121318547169E+00  0.127861219812E+00  0.134723926039E+00  0.141919478435E+00
  0.149460953941E+00  0.157361675219E+00  0.165635189062E+00  0.174295241639E+00  0.183355750345E+00
  0.192830772025E+00  0.202734467344E+00  0.213081061052E+00  0.223884797920E+00  0.235159894083E+00
  0.246920483574E+00  0.259180559802E+00  0.271953911741E+00  0.285254054623E+00  0.299094154928E+00
  0.313486949475E+00  0.328444658451E+00  0.343978892248E+00  0.360100551978E+00  0.376819723600E+00
  0.394145565622E+00  0.412086190372E+00  0.430648538896E+00  0.449838249572E+00  0.469659520595E+00
  0.490114966509E+00  0.511205469030E+00  0.532930022426E+00  0.555285573750E+00  0.578266858238E+00
  0.601866230181E+00  0.626073489579E+00  0.650875704849E+00  0.676257031855E+00  0.702198529499E+00
  0.728677972163E+00  0.755669659376E+00  0.783144223321E+00  0.811068435218E+00  0.839405012297E+00
  0.868112428203E+00  0.897144731361E+00  0.926451378146E+00  0.955977091313E+00  0.985661758744E+00
  0.101544039383E+01  0.104524318597E+01  0.107499567619E+01  0.110461909401E+01  0.113403087830E+01
  0.116314536214E+01  0.119187451539E+01  0.122012850798E+01  0.124781572618E+01  0.127484184286E+01
  0.130110773747E+01  0.132650651292E+01  0.135092040451E+01  0.137421869061E+01  0.139625749315E+01
  0.141688159588E+01  0.143592751949E+01  0.145322669541E+01  0.146860788480E+01  0.148189862901E+01
  0.149292598354E+01  0.150151692213E+01  0.150749869569E+01  0.151069930143E+01  0.151094810413E+01
  0.150807659253E+01  0.150191923627E+01  0.149231439502E+01  0.147910524796E+01  0.146214071301E+01
  0.144127634372E+01  0.141637519574E+01  0.138730866226E+01  0.135395728860E+01  0.131621156959E+01
  0.127397274667E+01  0.122715361430E+01  0.117567935591E+01  0.111948842088E+01  0.105853346360E+01
  0.992782364505E+00  0.922219349511E+00  0.846846231605E+00  0.766683792470E+00  0.681773325778E+00
  0.592178359167E+00  0.497986573192E+00  0.399311932267E+00  0.296297038202E+00  0.189115717116E+00
  0.000000000000E+00  0.000000000000E+00  0.000000000000E+00  0.000000000000E+00  0.000000000000E+00
  0.000000000000E+00  0.000000000000E+00  0.000000000000E+00  0.000000000000E+00  0.000000000000E+00
  0.000000000000E+00  0.000000000000E+00  0.000000000000E+00  0.000000000000E+00  0.000000000000E+00
  0.000000000000E+00  0.000000000000E+00  0.000000000000E+00  0.000000000000E+00  0.000000000000E+00
  0.000000000000E+00  0.000000000000E+00  0.000000000000E+00  0.000000000000E+00  0.000000000000E+00
  0.000000000000E+00  0.000000000000E+00  0.000000000000E+00  0.000000000000E+00  0.000000000000E+00
  0.000000000000E+00  0.000000000000E+00  0.000000000000E+00  0.000000000000E+00  0.000000000000E+00
  0.000000000000E+00  0.000000000000E+00  0.000000000000E+00  0.000000000000E+00  0.000000000000E+00
  0.000000000000E+00  0.000000000000E+00  0.000000000000E+00  0.000000000000E+00  0.000000000000E+00
  0.000000000000E+00  0.000000000000E+00  0.000000000000E+00  0.000000000000E+00  0.000000000000E+00
  0.000000000000E+00  0.000000000000E+00  0.000000000000E+00  0.000000000000E+00  0.000000000000E+00
  0.000000000000E+00  0.000000000000E+00  0.000000000000E+00  0.000000000000E+00
 End of Dataset
  PAW_PBE O 08Apr2002                    
   6.00000000000000     
 parameters from PSCTR are:
   VRHFIN =O: s2p4
   LEXCH  = PE
   EATOM  =   432.3788 eV,   31.7789 Ry

   TITEL  = PAW_PBE O 08Apr2002
   LULTRA =        F    use ultrasoft PP ?
   IUNSCR =        1    unscreen: 0-lin 1-nonlin 2-no
   RPACOR =    1.200    partial core radius
   POMASS =   16.000; ZVAL   =    6.000    mass and valenz
   RCORE  =    1.520    outmost cutoff radius
   RWIGS  =    1.550; RWIGS  =    0.820    wigner-seitz radius (au A)
   ENMAX  =  400.000; ENMIN  =  300.000 eV
   ICORE  =        2    local potential
   LCOR   =        T    correct aug charges
   LPAW   =        T    paw PP
   EAUG   =  605.392
   DEXC   =    0.000
   RMAX   =    1.553    core radius for proj-oper
   RAUG   =    1.300    factor for augmentation sphere
   RDEP   =    1.550    radius for radial grids
   RDEPT  =    1.329    core radius for aug-charge
 
   Atomic configuration
    4 entries
     n  l   j            E        occ.
     1  0  0.50      -514.6923   2.0000
     2  0  0.50       -23.9615   2.0000
     2  1  0.50        -9.0305   4.0000
     3  2  1.50        -9.5241   0.0000
   Description
     l       E           TYP  RCUT    TYP  RCUT
     0    -23.9615318     23  1.200
     0     -9.5240782     23  1.200
     1     -9.0304911     23  1.520
     1      8.1634956     23  1.520
     2     -9.5240782      7  1.500
   Error from kinetic energy argument (eV)
   NDATA  =      100
   STEP   =   20.000   1.050
  163.      160.      159.      156.      154.      151.      148.      146.
  142.      139.      137.      134.      130.      126.      123.      119.
  115.      111.      108.      102.      98.8      95.2      90.0      86.6
  83.2      78.3      73.5      70.4      65.9      61.6      57.4      53.4
  49.6      46.0      42.6      39.3      35.3      32.4      28.9      26.4
  23.4      20.6      18.1      15.8      13.7      11.9      10.3      8.47
  7.22      5.87      4.73      3.95      3.13      2.45      1.80      1.37
  1.03     0.721     0.493     0.329     0.215     0.138     0.882E-01 0.534E-01
 0.367E-01 0.267E-01 0.223E-01 0.205E-01 0.193E-01 0.181E-01 0.162E-01 0.138E-01
 0.112E-01 0.878E-02 0.646E-02 0.490E-02 0.370E-02 0.300E-02 0.259E-02 0.238E-02
 0.219E-02 0.196E-02 0.167E-02 0.132E-02 0.100E-02 0.764E-03 0.617E-03 0.544E-03
 0.522E-03 0.507E-03 0.467E-03 0.403E-03 0.312E-03 0.236E-03 0.181E-03 0.157E-03
 0.152E-03 0.150E-03 0.139E-03 0.118E-03
END of PSCTR-controll parameters
 local part
   122.832189257630     
  0.23159076E+02  0.23156323E+02  0.23152891E+02  0.23147171E+02  0.23139165E+02
  0.23128873E+02  0.23116296E+02  0.23101432E+02  0.23084278E+02  0.23064830E+02
  0.23043078E+02  0.23019012E+02  0.22992619E+02  0.22963881E+02  0.22932780E+02
  0.22899292E+02  0.22863394E+02  0.22825057E+02  0.22784252E+02  0.22740947E+02
  0.22695106E+02  0.22646690E+02  0.22595660E+02  0.22541970E+02  0.22485572E+02
  0.22426415E+02  0.22364442E+02  0.22299595E+02  0.22231811E+02  0.22161023E+02
  0.22087162E+02  0.22010155E+02  0.21929927E+02  0.21846399E+02  0.21759491E+02
  0.21669120E+02  0.21575204E+02  0.21477655E+02  0.21376389E+02  0.21271317E+02
  0.21162354E+02  0.21049412E+02  0.20932407E+02  0.20811254E+02  0.20685873E+02
  0.20556184E+02  0.20422114E+02  0.20283592E+02  0.20140552E+02  0.19992934E+02
  0.19840684E+02  0.19683757E+02  0.19522111E+02  0.19355716E+02  0.19184549E+02
  0.19008597E+02  0.18827857E+02  0.18642337E+02  0.18452054E+02  0.18257039E+02
  0.18057334E+02  0.17852993E+02  0.17644083E+02  0.17430684E+02  0.17212889E+02
  0.16990805E+02  0.16764551E+02  0.16534262E+02  0.16300082E+02  0.16062173E+02
  0.15820708E+02  0.15575872E+02  0.15327866E+02  0.15076899E+02  0.14823194E+02
  0.14566987E+02  0.14308521E+02  0.14048052E+02  0.13785844E+02  0.13522170E+02
  0.13257311E+02  0.12991555E+02  0.12725195E+02  0.12458529E+02  0.12191862E+02
  0.11925499E+02  0.11659748E+02  0.11394918E+02  0.11131317E+02  0.10869254E+02
  0.10609033E+02  0.10350957E+02  0.10095322E+02  0.98424191E+01  0.95925338E+01
  0.93459424E+01  0.91029131E+01  0.88637039E+01  0.86285623E+01  0.83977240E+01
  0.81714123E+01  0.79498370E+01  0.77331941E+01  0.75216648E+01  0.73154148E+01
  0.71145940E+01  0.69193361E+01  0.67297579E+01  0.65459593E+01  0.63680230E+01
  0.61960140E+01  0.60299801E+01  0.58699517E+01  0.57159415E+01  0.55679454E+01
  0.54259421E+01  0.52898937E+01  0.51597461E+01  0.50354294E+01  0.49168586E+01
  0.48039340E+01  0.46965419E+01  0.45945555E+01  0.44978356E+01  0.44062315E+01
  0.43195814E+01  0.42377142E+01  0.41604497E+01  0.40875997E+01  0.40189692E+01
  0.39543575E+01  0.38935589E+01  0.38363637E+01  0.37825597E+01  0.37319327E+01
  0.36842680E+01  0.36393508E+01  0.35969678E+01  0.35569077E+01  0.35189623E+01
  0.34829274E+01  0.34486035E+01  0.34157967E+01  0.33843192E+01  0.33539905E+01
  0.33246375E+01  0.32960954E+01  0.32682079E+01  0.32408281E+01  0.32138185E+01
  0.31870516E+01  0.31604100E+01  0.31337865E+01  0.31070846E+01  0.30802181E+01
  0.30531115E+01  0.30256997E+01  0.29979279E+01  0.29697517E+01  0.29411363E+01
  0.29120570E+01  0.28824981E+01  0.28524530E+01  0.28219238E+01  0.27909204E+01
  0.27594606E+01  0.27275691E+01  0.26952771E+01  0.26626218E+01  0.26296457E+01
  0.25963962E+01  0.25629247E+01  0.25292860E+01  0.24955381E+01  0.24617409E+01
  0.24279562E+01  0.23942467E+01  0.23606758E+01  0.23273066E+01  0.22942016E+01
  0.22614221E+01  0.22290277E+01  0.21970760E+01  0.21656219E+01  0.21347173E+01
  0.21044110E+01  0.20747480E+01  0.20457692E+01  0.20175117E+01  0.19900079E+01
  0.19632859E+01  0.19373690E+01  0.19122757E+01  0.18880199E+01  0.18646106E+01
  0.18420521E+01  0.18203440E+01  0.17994812E+01  0.17794544E+01  0.17602500E+01
  0.17418502E+01  0.17242334E+01  0.17073746E+01  0.16912454E+01  0.16758144E+01
  0.16610474E+01  0.16469079E+01  0.16333574E+01  0.16203556E+01  0.16078610E+01
  0.15958307E+01  0.15842216E+01  0.15729898E+01  0.15620918E+01  0.15514842E+01
  0.15411242E+01  0.15309702E+01  0.15209814E+01  0.15111189E+01  0.15013454E+01
  0.14916254E+01  0.14819259E+01  0.14722160E+01  0.14624673E+01  0.14526543E+01
  0.14427541E+01  0.14327467E+01  0.14226150E+01  0.14123449E+01  0.14019253E+01
  0.13913480E+01  0.13806076E+01  0.13697019E+01  0.13586312E+01  0.13473984E+01
  0.13360094E+01  0.13244720E+01  0.13127965E+01  0.13009955E+01  0.12890832E+01
  0.12770756E+01  0.12649904E+01  0.12528465E+01  0.12406638E+01  0.12284633E+01
  0.12162666E+01  0.12040955E+01  0.11919724E+01  0.11799196E+01  0.11679590E+01
  0.11561124E+01  0.11444009E+01  0.11328447E+01  0.11214633E+01  0.11102750E+01
  0.10992968E+01  0.10885445E+01  0.10780322E+01  0.10677726E+01  0.10577767E+01
  0.10480535E+01  0.10386106E+01  0.10294535E+01  0.10205860E+01  0.10120100E+01
  0.10037256E+01  0.99573111E+00  0.98802302E+00  0.98059619E+00  0.97344388E+00
  0.96655777E+00  0.95992813E+00  0.95354389E+00  0.94739277E+00  0.94146141E+00
  0.93573549E+00  0.93019985E+00  0.92483868E+00  0.91963564E+00  0.91457398E+00
  0.90963674E+00  0.90480684E+00  0.90006727E+00  0.89540118E+00  0.89079207E+00
  0.88622388E+00  0.88168111E+00  0.87714897E+00  0.87261346E+00  0.86806148E+00
  0.86348092E+00  0.85886072E+00  0.85419098E+00  0.84946295E+00  0.84466914E+00
  0.83980333E+00  0.83486058E+00  0.82983722E+00  0.82473092E+00  0.81954060E+00
  0.81426645E+00  0.80890988E+00  0.80347350E+00  0.79796101E+00  0.79237722E+00
  0.78672792E+00  0.78101981E+00  0.77526043E+00  0.76945809E+00  0.76362171E+00
  0.75776079E+00  0.75188527E+00  0.74600545E+00  0.74013186E+00  0.73427518E+00
  0.72844613E+00  0.72265536E+00  0.71691337E+00  0.71123040E+00  0.70561634E+00
  0.70008066E+00  0.69463230E+00  0.68927961E+00  0.68403029E+00  0.67889132E+00
  0.67386890E+00  0.66896843E+00  0.66419444E+00  0.65955058E+00  0.65503961E+00
  0.65066336E+00  0.64642275E+00  0.64231779E+00  0.63834759E+00  0.63451038E+00
  0.63080353E+00  0.62722361E+00  0.62376640E+00  0.62042695E+00  0.61719965E+00
  0.61407827E+00  0.61105604E+00  0.60812569E+00  0.60527956E+00  0.60250964E+00
  0.59980765E+00  0.59716514E+00  0.59457353E+00  0.59202421E+00  0.58950861E+00
  0.58701826E+00  0.58454489E+00  0.58208046E+00  0.57961727E+00  0.57714797E+00
  0.57466567E+00  0.57216395E+00  0.56963692E+00  0.56707928E+00  0.56448633E+00
  0.56185400E+00  0.55917889E+00  0.55645829E+00  0.55369014E+00  0.55087311E+00
  0.54800654E+00  0.54509046E+00  0.54212556E+00  0.53911318E+00  0.53605530E+00
  0.53295448E+00  0.52981384E+00  0.52663701E+00  0.52342811E+00  0.52019167E+00
  0.51693261E+00  0.51365617E+00  0.51036786E+00  0.50707338E+00  0.50377862E+00
  0.50048955E+00  0.49721218E+00  0.49395251E+00  0.49071647E+00  0.48750986E+00
  0.48433829E+00  0.48120716E+00  0.47812159E+00  0.47508636E+00  0.47210591E+00
  0.46918428E+00  0.46632508E+00  0.46353145E+00  0.46080606E+00  0.45815110E+00
  0.45556823E+00  0.45305860E+00  0.45062282E+00  0.44826101E+00  0.44597273E+00
  0.44375707E+00  0.44161261E+00  0.43953746E+00  0.43752927E+00  0.43558527E+00
  0.43370232E+00  0.43187688E+00  0.43010511E+00  0.42838289E+00  0.42670584E+00
  0.42506939E+00  0.42346879E+00  0.42189920E+00  0.42035569E+00  0.41883331E+00
  0.41732712E+00  0.41583226E+00  0.41434394E+00  0.41285754E+00  0.41136861E+00
  0.40987293E+00  0.40836651E+00  0.40684568E+00  0.40530705E+00  0.40374758E+00
  0.40216459E+00  0.40055578E+00  0.39891922E+00  0.39725340E+00  0.39555721E+00
  0.39382995E+00  0.39207134E+00  0.39028149E+00  0.38846093E+00  0.38661055E+00
  0.38473164E+00  0.38282582E+00  0.38089505E+00  0.37894160E+00  0.37696803E+00
  0.37497713E+00  0.37297194E+00  0.37095567E+00  0.36893171E+00  0.36690355E+00
  0.36487479E+00  0.36284908E+00  0.36083009E+00  0.35882146E+00  0.35682682E+00
  0.35484967E+00  0.35289344E+00  0.35096139E+00  0.34905661E+00  0.34718199E+00
  0.34534019E+00  0.34353365E+00  0.34176451E+00  0.34003465E+00  0.33834565E+00
  0.33669877E+00  0.33509498E+00  0.33353491E+00  0.33201887E+00  0.33054686E+00
  0.32911854E+00  0.32773328E+00  0.32639013E+00  0.32508786E+00  0.32382497E+00
  0.32259969E+00  0.32141002E+00  0.32025373E+00  0.31912841E+00  0.31803148E+00
  0.31696019E+00  0.31591171E+00  0.31488308E+00  0.31387130E+00  0.31287331E+00
  0.31188607E+00  0.31090654E+00  0.30993172E+00  0.30895869E+00  0.30798463E+00
  0.30700685E+00  0.30602279E+00  0.30503006E+00  0.30402644E+00  0.30300994E+00
  0.30197876E+00  0.30093135E+00  0.29986638E+00  0.29878278E+00  0.29767973E+00
  0.29655667E+00  0.29541330E+00  0.29424956E+00  0.29306568E+00  0.29186211E+00
  0.29063955E+00  0.28939893E+00  0.28814140E+00  0.28686831E+00  0.28558119E+00
  0.28428176E+00  0.28297188E+00  0.28165354E+00  0.28032884E+00  0.27899999E+00
  0.27766925E+00  0.27633892E+00  0.27501136E+00  0.27368889E+00  0.27237383E+00
  0.27106847E+00  0.26977500E+00  0.26849556E+00  0.26723218E+00  0.26598676E+00
  0.26476107E+00  0.26355673E+00  0.26237518E+00  0.26121771E+00  0.26008540E+00
  0.25897915E+00  0.25789965E+00  0.25684741E+00  0.25582268E+00  0.25482556E+00
  0.25385590E+00  0.25291338E+00  0.25199746E+00  0.25110741E+00  0.25024234E+00
  0.24940116E+00  0.24858265E+00  0.24778542E+00  0.24700797E+00  0.24624867E+00
  0.24550578E+00  0.24477751E+00  0.24406197E+00  0.24335725E+00  0.24266139E+00
  0.24197242E+00  0.24128839E+00  0.24060737E+00  0.23992746E+00  0.23924683E+00
  0.23856374E+00  0.23787651E+00  0.23718358E+00  0.23648351E+00  0.23577499E+00
  0.23505683E+00  0.23432802E+00  0.23358767E+00  0.23283507E+00  0.23206967E+00
  0.23129111E+00  0.23049916E+00  0.22969380E+00  0.22887514E+00  0.22804348E+00
  0.22719928E+00  0.22634313E+00  0.22547579E+00  0.22459812E+00  0.22371115E+00
  0.22281599E+00  0.22191386E+00  0.22100608E+00  0.22009402E+00  0.21917913E+00
  0.21826291E+00  0.21734688E+00  0.21643258E+00  0.21552155E+00  0.21461532E+00
  0.21371540E+00  0.21282324E+00  0.21194024E+00  0.21106775E+00  0.21020701E+00
  0.20935919E+00  0.20852536E+00  0.20770646E+00  0.20690333E+00  0.20611668E+00
  0.20534709E+00  0.20459501E+00  0.20386075E+00  0.20314447E+00  0.20244620E+00
  0.20176585E+00  0.20110316E+00  0.20045776E+00  0.19982914E+00  0.19921668E+00
  0.19861965E+00  0.19803720E+00  0.19746840E+00  0.19691221E+00  0.19636753E+00
  0.19583321E+00  0.19530800E+00  0.19479065E+00  0.19427987E+00  0.19377435E+00
  0.19327275E+00  0.19277379E+00  0.19227616E+00  0.19177861E+00  0.19127992E+00
  0.19077894E+00  0.19027456E+00  0.18976576E+00  0.18925161E+00  0.18873125E+00
  0.18820392E+00  0.18766897E+00  0.18712585E+00  0.18657414E+00  0.18601351E+00
  0.18544376E+00  0.18486480E+00  0.18427666E+00  0.18367948E+00  0.18307352E+00
  0.18245915E+00  0.18183681E+00  0.18120709E+00  0.18057063E+00  0.17992815E+00
  0.17928049E+00  0.17862850E+00  0.17797313E+00  0.17731536E+00  0.17665620E+00
  0.17599671E+00  0.17533794E+00  0.17468098E+00  0.17402688E+00  0.17337670E+00
  0.17273147E+00  0.17209218E+00  0.17145979E+00  0.17083519E+00  0.17021923E+00
  0.16961266E+00  0.16901619E+00  0.16843044E+00  0.16785593E+00  0.16729311E+00
  0.16674233E+00  0.16620382E+00  0.16567775E+00  0.16516418E+00  0.16466305E+00
  0.16417422E+00  0.16369747E+00  0.16323245E+00  0.16277877E+00  0.16233591E+00
  0.16190329E+00  0.16148029E+00  0.16106617E+00  0.16066018E+00  0.16026148E+00
  0.15986923E+00  0.15948252E+00  0.15910044E+00  0.15872205E+00  0.15834641E+00
  0.15797257E+00  0.15759962E+00  0.15722664E+00  0.15685276E+00  0.15647712E+00
  0.15609893E+00  0.15571745E+00  0.15533198E+00  0.15494190E+00  0.15454664E+00
  0.15414573E+00  0.15373875E+00  0.15332538E+00  0.15290538E+00  0.15247858E+00
  0.15204491E+00  0.15160438E+00  0.15115709E+00  0.15070321E+00  0.15024300E+00
  0.14977680E+00  0.14930502E+00  0.14882812E+00  0.14834664E+00  0.14786118E+00
  0.14737239E+00  0.14688094E+00  0.14638757E+00  0.14589304E+00  0.14539812E+00
  0.14490360E+00  0.14441028E+00  0.14391897E+00  0.14343045E+00  0.14294550E+00
  0.14246486E+00  0.14198926E+00  0.14151937E+00  0.14105583E+00  0.14059922E+00
  0.14015009E+00  0.13970890E+00  0.13927606E+00  0.13885191E+00  0.13843672E+00
  0.13803069E+00  0.13763396E+00  0.13724656E+00  0.13686847E+00  0.13649960E+00
  0.13613977E+00  0.13578875E+00  0.13544622E+00  0.13511181E+00  0.13478509E+00
  0.13446556E+00  0.13415270E+00  0.13384592E+00  0.13354458E+00  0.13324804E+00
  0.13295561E+00  0.13266659E+00  0.13238025E+00  0.13209587E+00  0.13181273E+00
  0.13153011E+00  0.13124730E+00  0.13096362E+00  0.13067842E+00  0.13039107E+00
  0.13010098E+00  0.12980762E+00  0.12951049E+00  0.12920914E+00  0.12890321E+00
  0.12859235E+00  0.12827631E+00  0.12795489E+00  0.12762796E+00  0.12729544E+00
  0.12695734E+00  0.12661372E+00  0.12626472E+00  0.12591053E+00  0.12555140E+00
  0.12518765E+00  0.12481965E+00  0.12444781E+00  0.12407259E+00  0.12369450E+00
  0.12331409E+00  0.12293191E+00  0.12254858E+00  0.12216470E+00  0.12178091E+00
  0.12139784E+00  0.12101613E+00  0.12063641E+00  0.12025930E+00  0.11988541E+00
  0.11951532E+00  0.11914958E+00  0.11878870E+00  0.11843317E+00  0.11808343E+00
  0.11773987E+00  0.11740282E+00  0.11707258E+00  0.11674939E+00  0.11643341E+00
  0.11612476E+00  0.11582351E+00  0.11552965E+00  0.11524312E+00  0.11496380E+00
  0.11469151E+00  0.11442602E+00  0.11416704E+00  0.11391424E+00  0.11366725E+00
  0.11342562E+00  0.11318892E+00  0.11295663E+00  0.11272824E+00  0.11250321E+00
  0.11228096E+00  0.11206092E+00  0.11184250E+00  0.11162511E+00  0.11140817E+00
  0.11119111E+00  0.11097336E+00  0.11075438E+00  0.11053365E+00  0.11031069E+00
  0.11008504E+00  0.10985629E+00  0.10962407E+00  0.10938804E+00  0.10914792E+00
  0.10890348E+00  0.10865453E+00  0.10840094E+00  0.10814265E+00  0.10787963E+00
  0.10761190E+00  0.10733957E+00  0.10706277E+00  0.10678168E+00  0.10649655E+00
  0.10620766E+00  0.10591533E+00  0.10561994E+00  0.10532187E+00  0.10502157E+00
  0.10471949E+00  0.10441611E+00  0.10411195E+00  0.10380750E+00  0.10350329E+00
  0.10319985E+00  0.10289770E+00  0.10259736E+00  0.10229933E+00  0.10200411E+00
  0.10171215E+00  0.10142390E+00  0.10113978E+00  0.10086017E+00  0.10058540E+00
  0.10031577E+00  0.10005156E+00  0.99792978E-01  0.99540193E-01  0.99293328E-01
  0.99052459E-01  0.98817610E-01  0.98588757E-01  0.98365827E-01  0.98148698E-01
  0.97937203E-01  0.97731130E-01  0.97530225E-01  0.97334195E-01  0.97142707E-01
  0.96955400E-01  0.96771879E-01  0.96591726E-01  0.96414497E-01  0.96239735E-01
  0.96066966E-01  0.95895709E-01  0.95725476E-01  0.95555783E-01  0.95386148E-01
  0.95216099E-01  0.95045178E-01  0.94872945E-01  0.94698983E-01  0.94522899E-01
  0.94344330E-01  0.94162946E-01  0.93978451E-01  0.93790588E-01  0.93599139E-01
  0.93403927E-01  0.93204820E-01  0.93001728E-01  0.92794609E-01  0.92583463E-01
  0.92368337E-01  0.92149319E-01  0.91926543E-01  0.91700184E-01  0.91470454E-01
  0.91237604E-01  0.91001919E-01  0.90763714E-01  0.90523335E-01  0.90281152E-01
  0.90037554E-01  0.89792951E-01  0.89547764E-01  0.89302426E-01  0.89057374E-01
  0.88813047E-01  0.88569881E-01  0.88328303E-01  0.88088732E-01  0.87851569E-01
  0.87617198E-01  0.87385980E-01  0.87158250E-01  0.86934315E-01  0.86714450E-01
  0.86498897E-01  0.86287863E-01  0.86081515E-01  0.85879983E-01  0.85683358E-01
  0.85491686E-01  0.85304976E-01  0.85123193E-01  0.84946265E-01  0.84774075E-01
  0.84606474E-01  0.84443271E-01  0.84284243E-01  0.84129135E-01  0.83977661E-01
  0.83829509E-01  0.83684343E-01  0.83541806E-01  0.83401522E-01  0.83263104E-01
  0.83126153E-01  0.82990265E-01  0.82855032E-01  0.82720048E-01  0.82584911E-01
  0.82449231E-01  0.82312628E-01  0.82174739E-01  0.82035220E-01  0.81893749E-01
  0.81750032E-01  0.81603798E-01  0.81454810E-01  0.81302863E-01  0.81147783E-01
  0.80989434E-01  0.80827715E-01  0.80662565E-01  0.80493956E-01  0.80321902E-01
  0.80146453E-01  0.79967695E-01  0.79785750E-01  0.79600776E-01  0.79412960E-01
  0.79222523E-01  0.79029713E-01  0.78834802E-01  0.78638088E-01  0.78439887E-01
  0.78240534E-01  0.78040377E-01  0.77839773E-01  0.77639090E-01  0.77438697E-01
  0.77238964E-01  0.77040257E-01  0.76842936E-01  0.76647351E-01  0.76453836E-01
  0.76262713E-01  0.76074279E-01  0.75888812E-01  0.75706566E-01  0.75527767E-01
  0.75352611E-01  0.75181266E-01  0.75013866E-01  0.74850514E-01  0.74691276E-01
  0.74536186E-01  0.74385241E-01  0.74238407E-01  0.74095612E-01  0.73956753E-01
  0.73821695E-01  0.73690270E-01  0.73562286E-01  0.73437519E-01  0.73315724E-01
  0.73196632E-01  0.73079954E-01  0.72965386E-01  0.72852607E-01  0.72741287E-01
  0.72631089E-01  0.72521667E-01  0.72412679E-01  0.72303780E-01  0.72194632E-01
 gradient corrections used for XC
           5
 core charge-density (partial)
  0.26956851E-02  0.26948879E-02  0.26924976E-02  0.26885178E-02  0.26829551E-02
  0.26758182E-02  0.26671185E-02  0.26568697E-02  0.26450880E-02  0.26317922E-02
  0.26170031E-02  0.26007439E-02  0.25830402E-02  0.25639196E-02  0.25434119E-02
  0.25215489E-02  0.24983643E-02  0.24738939E-02  0.24481750E-02  0.24212469E-02
  0.23931503E-02  0.23639276E-02  0.23336224E-02  0.23022798E-02  0.22699462E-02
  0.22366689E-02  0.22024963E-02  0.21674778E-02  0.21316636E-02  0.20951042E-02
  0.20578513E-02  0.20199565E-02  0.19814721E-02  0.19424506E-02  0.19029443E-02
  0.18630061E-02  0.18226882E-02  0.17820431E-02  0.17411227E-02  0.16999786E-02
  0.16586620E-02  0.16172234E-02  0.15757125E-02  0.15341786E-02  0.14926697E-02
  0.14512331E-02  0.14099150E-02  0.13687605E-02  0.13278136E-02  0.12871169E-02
  0.12467118E-02  0.12066384E-02  0.11669351E-02  0.11276391E-02  0.10887861E-02
  0.10504099E-02  0.10125431E-02  0.97521650E-03  0.93845915E-03  0.90229855E-03
  0.86676047E-03  0.83186896E-03  0.79764634E-03  0.76411323E-03  0.73128851E-03
  0.69918935E-03  0.66783118E-03  0.63722777E-03  0.60739118E-03  0.57833182E-03
  0.55005845E-03  0.52257823E-03  0.49589673E-03  0.47001796E-03  0.44494445E-03
  0.42067724E-03  0.39721593E-03  0.37455875E-03  0.35270258E-03  0.33164303E-03
  0.31137445E-03  0.29189001E-03  0.27318174E-03  0.25524059E-03  0.23805651E-03
  0.22161846E-03  0.20591448E-03  0.19093180E-03  0.17665682E-03  0.16307522E-03
  0.15017201E-03  0.13793157E-03  0.12633773E-03  0.11537381E-03  0.10502268E-03
  0.95266838E-04  0.86088431E-04  0.77469330E-04  0.69391177E-04  0.61835435E-04
  0.54783440E-04  0.48216450E-04  0.42115690E-04  0.36462395E-04  0.31237860E-04
  0.26423475E-04  0.22000766E-04  0.17951438E-04  0.14257401E-04  0.10900813E-04
  0.78641060E-05  0.51300188E-05  0.26816223E-05  0.50234588E-06 -0.14239987E-05
 -0.31131967E-05 -0.45806104E-05 -0.58411624E-05 -0.69093198E-05 -0.77990812E-05
 -0.85239648E-05 -0.90969994E-05 -0.95307162E-05 -0.98371432E-05 -0.10027801E-04
 -0.10113698E-04 -0.10105336E-04 -0.10012700E-04 -0.98452723E-05 -0.96120262E-05
 -0.93214360E-05 -0.89814816E-05 -0.85996553E-05 -0.81829709E-05 -0.77379722E-05
 -0.72707439E-05 -0.67869224E-05 -0.62917078E-05 -0.57898765E-05 -0.52857946E-05
 -0.47834316E-05 -0.42863751E-05 -0.37978450E-05 -0.33207093E-05 -0.28574991E-05
 -0.24104243E-05 -0.19813897E-05 -0.15720106E-05 -0.11836287E-05 -0.81732829E-06
 -0.47395201E-06 -0.15411646E-06  0.14177213E-06  0.41350264E-06  0.66104393E-06
  0.88453011E-06  0.10842461E-05  0.12606136E-05  0.14141774E-05  0.15455922E-05
  0.16556097E-05  0.17450666E-05  0.18148726E-05  0.18659991E-05  0.18994686E-05
  0.19163445E-05  0.19177212E-05  0.19047153E-05  0.18784569E-05  0.18400816E-05
  0.17907231E-05  0.17315063E-05  0.16635410E-05  0.15879162E-05  0.15056946E-05
  0.14179081E-05  0.13255534E-05  0.12295886E-05  0.11309293E-05  0.10304468E-05
  0.92896462E-06  0.82725761E-06  0.72604987E-06  0.62601385E-06  0.52776961E-06
  0.43188445E-06  0.33887283E-06  0.24919672E-06  0.16326606E-06  0.81439654E-07
  0.40262264E-08 -0.68714308E-07 -0.13656933E-06 -0.19937183E-06 -0.25699859E-06
 -0.30936819E-06 -0.35643889E-06 -0.39820647E-06 -0.43470186E-06 -0.46598888E-06
 -0.49216175E-06 -0.51334268E-06 -0.52967942E-06 -0.54134281E-06 -0.54852426E-06
 -0.55143342E-06 -0.55029570E-06 -0.54534999E-06 -0.53684633E-06 -0.52504370E-06
 -0.51020789E-06 -0.49260943E-06 -0.47252162E-06 -0.45021864E-06 -0.42597380E-06
 -0.40005786E-06 -0.37273747E-06 -0.34427373E-06 -0.31492086E-06 -0.28492498E-06
 -0.25452299E-06 -0.22394162E-06 -0.19339654E-06 -0.16309161E-06 -0.13321823E-06
 -0.10395482E-06 -0.75466363E-07 -0.47904135E-07 -0.21405430E-07  0.39065408E-08
  0.27922686E-07  0.50547986E-07  0.71701356E-07  0.91315432E-07  0.10933629E-06
  0.12572310E-06  0.14044769E-06  0.15349412E-06  0.16485813E-06  0.17454657E-06
  0.18257685E-06  0.18897624E-06  0.19378124E-06  0.19703692E-06  0.19879615E-06
  0.19911893E-06  0.19807167E-06  0.19572642E-06  0.19216018E-06  0.18745416E-06
  0.18169308E-06  0.17496446E-06  0.16735793E-06  0.15896458E-06  0.14987633E-06
  0.14018527E-06  0.12998312E-06  0.11936066E-06  0.10840718E-06  0.97210008E-07
  0.85854060E-07  0.74421402E-07  0.62990870E-07  0.51637725E-07  0.40433344E-07
  0.29444942E-07  0.18735345E-07  0.83627867E-08 -0.16192457E-08 -0.11162140E-07
 -0.20222244E-07 -0.28760923E-07 -0.36744579E-07 -0.44144641E-07 -0.50937524E-07
 -0.57104559E-07 -0.62631899E-07 -0.67510393E-07 -0.71735446E-07 -0.75306849E-07
 -0.78228593E-07 -0.80508664E-07 -0.82158829E-07 -0.83194392E-07 -0.83633960E-07
 -0.83499180E-07 -0.82814479E-07 -0.81606794E-07 -0.79905300E-07 -0.77741134E-07
 -0.75147120E-07 -0.72157492E-07 -0.68807622E-07 -0.65133755E-07 -0.61172744E-07
 -0.56961793E-07 -0.52538215E-07 -0.47939188E-07 -0.43201533E-07 -0.38361495E-07
 -0.33454537E-07 -0.28515156E-07 -0.23576698E-07 -0.18671199E-07 -0.13829235E-07
 -0.90797884E-08 -0.44501276E-08  0.34295102E-10  0.43499333E-08  0.84752195E-08
  0.12390624E-07  0.16078698E-07  0.19524104E-07  0.22713630E-07  0.25636193E-07
  0.28282824E-07  0.30646648E-07  0.32722846E-07  0.34508608E-07  0.36003075E-07
  0.37207273E-07  0.38124034E-07  0.38757915E-07  0.39115100E-07  0.39203307E-07
  0.39031681E-07  0.38610684E-07  0.37951983E-07  0.37068333E-07  0.35973454E-07
  0.34681919E-07  0.33209022E-07  0.31570665E-07  0.29783232E-07  0.27863470E-07
  0.25828376E-07  0.23695074E-07  0.21480712E-07  0.19202347E-07  0.16876847E-07
  0.14520792E-07  0.12150375E-07  0.97813212E-08  0.74288040E-08  0.51073681E-08
  0.28308617E-08  0.61237406E-09 -0.15358199E-08 -0.36023086E-08 -0.55765849E-08
 -0.74490811E-08 -0.92111966E-08 -0.10855319E-07 -0.12374837E-07 -0.13764149E-07
 -0.15018664E-07 -0.16134795E-07 -0.17109951E-07 -0.17942515E-07 -0.18631827E-07
 -0.19178150E-07 -0.19582647E-07 -0.19847333E-07 -0.19975044E-07 -0.19969388E-07
 -0.19834695E-07 -0.19575973E-07 -0.19198848E-07 -0.18709515E-07 -0.18114674E-07
 -0.17421480E-07 -0.16637477E-07 -0.15770541E-07 -0.14828824E-07 -0.13820687E-07
 -0.12754647E-07 -0.11639319E-07 -0.10483354E-07 -0.92953922E-08 -0.80840013E-08
 -0.68576308E-08 -0.56245614E-08 -0.43928588E-08 -0.31703303E-08 -0.19644843E-08
 -0.78249266E-09  0.36884322E-09  0.14831235E-08  0.25543773E-08  0.35770865E-08
  0.45462067E-08  0.54571835E-08  0.63059662E-08  0.70890179E-08  0.78033217E-08
  0.84463835E-08  0.90162322E-08  0.95114162E-08  0.99309965E-08  0.10274537E-07
  0.10542094E-07  0.10734198E-07  0.10851840E-07  0.10896447E-07  0.10869866E-07
  0.10774336E-07  0.10612464E-07  0.10387198E-07  0.10101796E-07  0.97598041E-08
  0.93650167E-08  0.89214524E-08  0.84333197E-08  0.79049862E-08  0.73409466E-08
  0.67457913E-08  0.61241749E-08  0.54807856E-08  0.48203154E-08  0.41474302E-08
  0.34667422E-08  0.27827825E-08  0.20999751E-08  0.14226128E-08  0.75483407E-09
  0.10060160E-09 -0.53631723E-09 -0.11523684E-08 -0.17442272E-08 -0.23088127E-08
 -0.28432999E-08 -0.33451304E-08 -0.38120207E-08 -0.42419689E-08 -0.46332594E-08
 -0.49844657E-08 -0.52944511E-08 -0.55623683E-08 -0.57876564E-08 -0.59700367E-08
 -0.61095067E-08 -0.62063329E-08 -0.62610415E-08 -0.62744085E-08 -0.62474480E-08
 -0.61813994E-08 -0.60777139E-08 -0.59380398E-08 -0.57642069E-08 -0.55582105E-08
 -0.53221944E-08 -0.50584340E-08 -0.47693185E-08 -0.44573329E-08 -0.41250405E-08
 -0.37750647E-08 -0.34100711E-08 -0.30327502E-08 -0.26457995E-08 -0.22519071E-08
 -0.18537352E-08 -0.14539040E-08 -0.10549768E-08 -0.65944544E-09 -0.26971674E-09
  0.11190021E-09  0.48320592E-09  0.84212128E-09  0.11866974E-08  0.15151245E-08
  0.18257392E-08  0.21170316E-08  0.23876505E-08  0.26364079E-08  0.28622819E-08
  0.30644194E-08  0.32421368E-08  0.33949200E-08  0.35224234E-08  0.36244681E-08
  0.37010384E-08  0.37522781E-08  0.37784856E-08  0.37801086E-08  0.37577368E-08
  0.37120957E-08  0.36440381E-08  0.35545359E-08  0.34446714E-08  0.33156275E-08
  0.31686783E-08  0.30051785E-08  0.28265538E-08  0.26342896E-08  0.24299207E-08
  0.22150207E-08  0.19911912E-08  0.17600511E-08  0.15232263E-08  0.12823394E-08
  0.10390000E-08  0.79479449E-09  0.55127727E-09  0.30996168E-09  0.72311632E-10
 -0.16026627E-09 -0.38643010E-09 -0.60490939E-09 -0.81451133E-09 -0.10141263E-08
 -0.12027328E-08 -0.13794018E-08 -0.15433002E-08 -0.16936937E-08 -0.18299494E-08
 -0.19515369E-08 -0.20580297E-08 -0.21491049E-08 -0.22245432E-08 -0.22842279E-08
 -0.23281429E-08 -0.23563709E-08 -0.23690904E-08 -0.23665725E-08 -0.23491770E-08
 -0.23173482E-08 -0.22716105E-08 -0.22125628E-08 -0.21408736E-08 -0.20572752E-08
 -0.19625573E-08 -0.18575615E-08 -0.17431744E-08 -0.16203214E-08 -0.14899600E-08
 -0.13530731E-08 -0.12106625E-08 -0.10637421E-08 -0.91333159E-09 -0.76044975E-09
 -0.60610841E-09 -0.45130621E-09 -0.29702272E-09 -0.14421284E-09  0.61985696E-11
  0.15332178E-09  0.29630692E-09  0.43434832E-09  0.56668859E-09  0.69262223E-09
  0.81149885E-09  0.92272602E-09  0.10257717E-08  0.11201661E-08  0.12055035E-08
  0.12814430E-08  0.13477098E-08  0.14040948E-08  0.14504550E-08  0.14867127E-08
  0.15128548E-08  0.15289313E-08  0.15350539E-08  0.15313936E-08  0.15181788E-08
  0.14956926E-08  0.14642694E-08  0.14242927E-08  0.13761907E-08  0.13204334E-08
  0.12575285E-08  0.11880176E-08  0.11124721E-08  0.10314890E-08  0.94568677E-09
  0.85570104E-09  0.76218029E-09  0.66578159E-09  0.56716641E-09  0.46699635E-09
  0.36592913E-09  0.26461456E-09  0.16369071E-09  0.63780179E-10 -0.34513406E-10
 -0.13060875E-09 -0.22395004E-09 -0.31400981E-09 -0.40029171E-09 -0.48233285E-09
 -0.55970604E-09 -0.63202171E-09 -0.69892952E-09 -0.76011978E-09 -0.81532450E-09
 -0.86431826E-09 -0.90691870E-09 -0.94298682E-09 -0.97242696E-09 -0.99518653E-09
 -0.10112555E-08 -0.10206655E-08 -0.10234889E-08 -0.10198378E-08 -0.10098620E-08
 -0.99374760E-09 -0.97171544E-09 -0.94401857E-09 -0.91094032E-09 -0.87279186E-09
 -0.82990981E-09 -0.78265359E-09 -0.73140280E-09 -0.67655446E-09 -0.61852021E-09
 -0.55772353E-09 -0.49459684E-09 -0.42957868E-09 -0.36311088E-09 -0.29563578E-09
 -0.22759347E-09 -0.15941912E-09 -0.91540379E-10 -0.24374909E-10  0.41672043E-10
  0.10620989E-09  0.16886483E-09  0.22928187E-09  0.28712661E-09  0.34208696E-09
  0.39387462E-09  0.44222643E-09  0.48690549E-09  0.52770215E-09  0.56443481E-09
  0.59695046E-09  0.62512514E-09  0.64886412E-09  0.66810198E-09  0.68280242E-09
  0.69295797E-09  0.69858952E-09  0.69974559E-09  0.69650159E-09  0.68895883E-09
  0.67724340E-09  0.66150496E-09  0.64191535E-09  0.61866715E-09  0.59197209E-09
  0.56205941E-09  0.52917408E-09  0.49357506E-09  0.45553340E-09  0.41533037E-09
  0.37325551E-09  0.32960471E-09  0.28467830E-09  0.23877904E-09  0.19221027E-09
  0.14527401E-09  0.98269090E-10  0.51489414E-10  0.52221955E-11 -0.40253680E-10
 -0.84669230E-10 -0.12776686E-09 -0.16930174E-09 -0.20904311E-09 -0.24677542E-09
 -0.28229942E-09 -0.31543307E-09 -0.34601241E-09 -0.37389217E-09 -0.39894643E-09
 -0.42106896E-09 -0.44017359E-09 -0.45619440E-09 -0.46908570E-09 -0.47882202E-09
 -0.48539788E-09 -0.48882748E-09 -0.48914430E-09 -0.48640049E-09 -0.48066626E-09
 -0.47202916E-09 -0.46059318E-09 -0.44647785E-09 -0.42981725E-09 -0.41075890E-09
 -0.38946263E-09 -0.36609939E-09 -0.34084996E-09 -0.31390374E-09 -0.28545737E-09
 -0.25571340E-09 -0.22487897E-09 -0.19316443E-09 -0.16078199E-09 -0.12794436E-09
 -0.94863484E-10 -0.61749180E-10 -0.28807920E-10  0.37583950E-11  0.35753608E-10
  0.66988414E-10  0.97281416E-10  0.12646011E-09  0.15436179E-09  0.18083442E-09
  0.20573732E-09  0.22894195E-09  0.25033240E-09  0.26980594E-09  0.28727344E-09
  0.30265967E-09  0.31590354E-09  0.32695826E-09  0.33579134E-09  0.34238463E-09
  0.34673411E-09  0.34884976E-09  0.34875519E-09  0.34648733E-09  0.34209596E-09
  0.33564318E-09  0.32720284E-09  0.31685988E-09  0.30470964E-09  0.29085708E-09
  0.27541600E-09  0.25850815E-09  0.24026241E-09  0.22081383E-09  0.20030272E-09
  0.17887369E-09  0.15667468E-09  0.13385602E-09  0.11056943E-09  0.86967102E-10
  0.63200706E-10  0.39420500E-10  0.15774409E-10 -0.75928455E-11 -0.30540588E-10
 -0.52932990E-10 -0.74639834E-10 -0.95537223E-10 -0.11550825E-09 -0.13444359E-09
 -0.15224208E-09 -0.16881120E-09 -0.18406749E-09 -0.19793697E-09 -0.21035537E-09
 -0.22126845E-09 -0.23063213E-09 -0.23841261E-09 -0.24458642E-09 -0.24914042E-09
 -0.25207166E-09 -0.25338733E-09 -0.25310446E-09 -0.25124973E-09 -0.24785913E-09
 -0.24297759E-09 -0.23665855E-09 -0.22896355E-09 -0.21996165E-09 -0.20972896E-09
 -0.19834799E-09 -0.18590711E-09 -0.17249986E-09 -0.15822434E-09 -0.14318250E-09
 -0.12747944E-09 -0.11122277E-09 -0.94521848E-10 -0.77487123E-10 -0.60229406E-10
 -0.42859194E-10 -0.25485995E-10 -0.82176645E-11  0.88402350E-11  0.25585048E-10
  0.41917617E-10  0.57742838E-10  0.72970188E-10  0.87514213E-10  0.10129498E-09
  0.11423848E-09  0.12627700E-09  0.13734945E-09  0.14740163E-09  0.15638647E-09
  0.16426420E-09  0.17100250E-09  0.17657659E-09  0.18096924E-09  0.18417081E-09
  0.18617915E-09  0.18699952E-09  0.18664448E-09  0.18513364E-09  0.18249347E-09
  0.17875707E-09  0.17396378E-09  0.16815892E-09  0.16139340E-09  0.15372331E-09
  0.14520951E-09  0.13591718E-09  0.12591537E-09  0.11527650E-09  0.10407585E-09
  0.92391088E-10  0.80301741E-10  0.67888669E-10  0.55233560E-10  0.42418406E-10
  0.29524994E-10  0.16634409E-10  0.38265403E-11 -0.88203924E-11 -0.21230298E-10
 -0.33329650E-10 -0.45047906E-10 -0.56317898E-10 -0.67076196E-10 -0.77263447E-10
 -0.86824685E-10 -0.95709600E-10 -0.10387279E-09 -0.11127396E-09 -0.11787810E-09
 -0.12365565E-09 -0.12858255E-09 -0.13264036E-09 -0.13581628E-09 -0.13810314E-09
 -0.13949935E-09 -0.14000889E-09 -0.13964112E-09 -0.13841072E-09 -0.13633749E-09
 -0.13344614E-09 -0.12976613E-09 -0.12533134E-09 -0.12017986E-09 -0.11435366E-09
 -0.10789832E-09 -0.10086264E-09 -0.93298335E-10 -0.85259668E-10 -0.76803070E-10
 -0.67986770E-10 -0.58870408E-10 -0.49514648E-10 -0.39980790E-10 -0.30330383E-10
 -0.20624842E-10 -0.10925071E-10 -0.12910964E-11  0.82182941E-11  0.17545894E-10
  0.26636410E-10  0.35436776E-10  0.43896450E-10  0.51967692E-10  0.59605816E-10
  0.66769429E-10  0.73420634E-10  0.79525223E-10  0.85052833E-10  0.89977082E-10
  0.94275675E-10  0.97930489E-10  0.10092763E-09  0.10325744E-09  0.10491454E-09
  0.10589778E-09  0.10621016E-09  0.10585882E-09  0.10485488E-09  0.10321336E-09
  0.10095301E-09  0.98096159E-10  0.94668503E-10  0.90698935E-10  0.86219307E-10
  0.81264192E-10  0.75870640E-10  0.70077914E-10  0.63927218E-10  0.57461418E-10
  0.50724756E-10  0.43762557E-10  0.36620936E-10  0.29346505E-10  0.21986076E-10
  0.14586372E-10  0.71937408E-11 -0.14612934E-12 -0.73884789E-11 -0.14489742E-10
 -0.21407800E-10 -0.28102221E-10 -0.34534487E-10 -0.40668206E-10 -0.46469308E-10
 -0.51906227E-10 -0.56950059E-10 -0.61574707E-10 -0.65757007E-10 -0.69476828E-10
 -0.72717160E-10 -0.75464178E-10 -0.77707282E-10 -0.79439127E-10 -0.80655618E-10
 -0.81355900E-10 -0.81542315E-10 -0.81220352E-10 -0.80398568E-10 -0.79088499E-10
 -0.77304545E-10 -0.75063851E-10 -0.72386161E-10 -0.69293665E-10 -0.65810830E-10
 -0.61964221E-10 -0.57782307E-10 -0.53295266E-10 -0.48534773E-10 -0.43533788E-10
 -0.38326335E-10 -0.32947280E-10 -0.27432104E-10 -0.21816677E-10 -0.16137033E-10
 -0.10429142E-10 -0.47286959E-11  0.92911439E-12  0.65098064E-11  0.11979810E-10
  0.17306664E-10  0.22459200E-10  0.27407719E-10  0.32124159E-10  0.36582242E-10
  0.40757616E-10  0.44627983E-10  0.48173207E-10  0.51375414E-10  0.54219069E-10
  0.56691051E-10  0.58780693E-10  0.60479828E-10  0.61782797E-10  0.62686464E-10
  0.63190192E-10  0.63295828E-10  0.63007651E-10  0.62332319E-10  0.61278801E-10
  0.59858287E-10  0.58084100E-10  0.55971578E-10  0.53537961E-10  0.50802260E-10
  0.47785118E-10  0.44508660E-10  0.40996341E-10  0.37272787E-10  0.33363624E-10
  0.29295311E-10  0.25094965E-10  0.20790190E-10  0.16408894E-10  0.11979119E-10
  0.75288631E-11  0.30859122E-11 -0.13223326E-11 -0.56690173E-11 -0.99279937E-11
 -0.14073973E-10 -0.18082669E-10 -0.21930939E-10 -0.25596911E-10 -0.29060100E-10
 -0.32301523E-10 -0.35303796E-10 -0.38051217E-10 -0.40529851E-10 -0.42727588E-10
 -0.44634198E-10 -0.46241372E-10 -0.47542749E-10 -0.48533931E-10 -0.49212492E-10
 kinetic energy density (partial)
  0.17290945E+01  0.17285841E+01  0.17270538E+01  0.17245059E+01  0.17209446E+01
  0.17163755E+01  0.17108057E+01  0.17042442E+01  0.16967013E+01  0.16881888E+01
  0.16787202E+01  0.16683103E+01  0.16569753E+01  0.16447329E+01  0.16316023E+01
  0.16176036E+01  0.16027584E+01  0.15870895E+01  0.15706209E+01  0.15533776E+01
  0.15353856E+01  0.15166720E+01  0.14972647E+01  0.14771925E+01  0.14564850E+01
  0.14351725E+01  0.14132859E+01  0.13908568E+01  0.13679172E+01  0.13444995E+01
  0.13206367E+01  0.12963618E+01  0.12717083E+01  0.12467096E+01  0.12213994E+01
  0.11958113E+01  0.11699789E+01  0.11439355E+01  0.11177147E+01  0.10913492E+01
  0.10648719E+01  0.10383150E+01  0.10117105E+01  0.98508985E+00  0.95848380E+00
  0.93192264E+00  0.90543598E+00  0.87905269E+00  0.85280094E+00  0.82670808E+00
  0.80080062E+00  0.77510421E+00  0.74964360E+00  0.72444257E+00  0.69952396E+00
  0.67490961E+00  0.65062032E+00  0.62667587E+00  0.60309497E+00  0.57989526E+00
  0.55709331E+00  0.53470458E+00  0.51274343E+00  0.49122312E+00  0.47015583E+00
  0.44955260E+00  0.42942340E+00  0.40977711E+00  0.39062154E+00  0.37196342E+00
  0.35380843E+00  0.33616124E+00  0.31902548E+00  0.30240381E+00  0.28629791E+00
  0.27070852E+00  0.25563546E+00  0.24107766E+00  0.22703319E+00  0.21349931E+00
  0.20047246E+00  0.18794833E+00  0.17592189E+00  0.16438738E+00  0.15333844E+00
  0.14276803E+00  0.13266856E+00  0.12303189E+00  0.11384935E+00  0.10511182E+00
  0.96809732E-01  0.88933116E-01  0.81471646E-01  0.74414669E-01  0.67751243E-01
  0.61470175E-01  0.55560051E-01  0.50009275E-01  0.44806100E-01  0.39938664E-01
  0.35395019E-01  0.31163163E-01  0.27231070E-01  0.23586720E-01  0.20218126E-01
  0.17113360E-01  0.14260579E-01  0.11648050E-01  0.92641732E-02  0.70975013E-02
  0.51367625E-02  0.33708785E-02  0.17889825E-02  0.38043563E-03 -0.86515782E-03
 -0.19579367E-02 -0.29077704E-02 -0.37242477E-02 -0.44166664E-02 -0.49940254E-02
 -0.54650164E-02 -0.58380181E-02 -0.61210912E-02 -0.63219740E-02 -0.64480800E-02
 -0.65064958E-02 -0.65039806E-02 -0.64469664E-02 -0.63415589E-02 -0.61935402E-02
 -0.60083709E-02 -0.57911949E-02 -0.55468428E-02 -0.52798380E-02 -0.49944022E-02
 -0.46944620E-02 -0.43836558E-02 -0.40653416E-02 -0.37426050E-02 -0.34182677E-02
 -0.30948962E-02 -0.27748111E-02 -0.24600964E-02 -0.21526095E-02 -0.18539907E-02
 -0.15656736E-02 -0.12888947E-02 -0.10247041E-02 -0.77397550E-03 -0.53741650E-03
 -0.31557862E-03 -0.10886752E-03  0.82447043E-04  0.25822137E-03  0.41842813E-03
  0.56314687E-03  0.69255474E-03  0.80691741E-03  0.90658036E-03  0.99196028E-03
  0.10635369E-02  0.11218452E-02  0.11674673E-02  0.12010261E-02  0.12231773E-02
  0.12346038E-02  0.12360086E-02  0.12281095E-02  0.12116334E-02  0.11873111E-02
  0.11558726E-02  0.11180424E-02  0.10745357E-02  0.10260544E-02  0.97328406E-03
  0.91689032E-03  0.85751654E-03  0.79578123E-03  0.73227598E-03  0.66756361E-03
  0.60217667E-03  0.53661621E-03  0.47135077E-03  0.40681566E-03  0.34341249E-03
  0.28150893E-03  0.22143862E-03  0.16350134E-03  0.10796340E-03  0.55058077E-04
  0.49863744E-05 -0.42082215E-04 -0.86008735E-04 -0.12668369E-03 -0.16402589E-03
 -0.19798115E-03 -0.22852096E-03 -0.25564108E-03 -0.27936004E-03 -0.29971764E-03
 -0.31677343E-03 -0.33060506E-03 -0.34130679E-03 -0.34898784E-03 -0.35377084E-03
 -0.35579025E-03 -0.35519081E-03 -0.35212606E-03 -0.34675681E-03 -0.33924978E-03
 -0.32977611E-03 -0.31851015E-03 -0.30562807E-03 -0.29130672E-03 -0.27572246E-03
 -0.25905007E-03 -0.24146177E-03 -0.22312623E-03 -0.20420776E-03 -0.18486548E-03
 -0.16525264E-03 -0.14551595E-03 -0.12579501E-03 -0.10622186E-03 -0.86920500E-04
 -0.68006593E-04 -0.49587153E-04 -0.31760344E-04 -0.14615332E-04  0.17678089E-05
  0.17318114E-04  0.31973702E-04  0.45681696E-04  0.58398081E-04  0.70087534E-04
  0.80723191E-04  0.90286392E-04  0.98766377E-04  0.10615995E-03  0.11247114E-03
  0.11771077E-03  0.12189609E-03  0.12505034E-03  0.12720230E-03  0.12838584E-03
  0.12863943E-03  0.12800575E-03  0.12653111E-03  0.12426509E-03  0.12125998E-03
  0.11757039E-03  0.11325275E-03  0.10836489E-03  0.10296562E-03  0.97114283E-04
  0.90870380E-04  0.84293186E-04  0.77441386E-04  0.70372734E-04  0.63143731E-04
  0.55809335E-04  0.48422678E-04  0.41034823E-04  0.33694534E-04  0.26448077E-04
  0.19339039E-04  0.12408178E-04  0.56932949E-05 -0.77087546E-06 -0.69527418E-05
 -0.12823917E-04 -0.18359254E-04 -0.23536861E-04 -0.28338097E-04 -0.32747544E-04
 -0.36752966E-04 -0.40345248E-04 -0.43518314E-04 -0.46269040E-04 -0.48597144E-04
 -0.50505065E-04 -0.51997834E-04 -0.53082933E-04 -0.53770142E-04 -0.54071382E-04
 -0.54000551E-04 -0.53573354E-04 -0.52807130E-04 -0.51720672E-04 -0.50334054E-04
 -0.48668448E-04 -0.46745951E-04 -0.44589403E-04 -0.42222219E-04 -0.39668216E-04
 -0.36951446E-04 -0.34096041E-04 -0.31126054E-04 -0.28065313E-04 -0.24937283E-04
 -0.21764930E-04 -0.18570599E-04 -0.15375898E-04 -0.12201594E-04 -0.90675122E-05
 -0.59924521E-05 -0.29941086E-05 -0.89004708E-07  0.27075669E-05  0.53815916E-05
  0.79203713E-05  0.10312553E-04  0.12548149E-04  0.14618547E-04  0.16516511E-04
  0.18236175E-04  0.19773027E-04  0.21123889E-04  0.22286883E-04  0.23261395E-04
  0.24048036E-04  0.24648585E-04  0.25065940E-04  0.25304059E-04  0.25367891E-04
  0.25263316E-04  0.24997066E-04  0.24576658E-04  0.24010318E-04  0.23306901E-04
  0.22475813E-04  0.21526935E-04  0.20470544E-04  0.19317232E-04  0.18077830E-04
  0.16763333E-04  0.15384825E-04  0.13953405E-04  0.12480118E-04  0.10975890E-04
  0.94514623E-05  0.79173292E-05  0.63836844E-05  0.48603660E-05  0.33568078E-05
  0.18819945E-05  0.44442122E-06 -0.94794305E-06 -0.22876867E-05 -0.35679827E-05
 -0.47826115E-05 -0.59259791E-05 -0.69931304E-05 -0.79797590E-05 -0.88822118E-05
 -0.96974899E-05 -0.10423246E-04 -0.11057775E-04 -0.11600007E-04 -0.12049490E-04
 -0.12406372E-04 -0.12671383E-04 -0.12845808E-04 -0.12931464E-04 -0.12930666E-04
 -0.12846204E-04 -0.12681303E-04 -0.12439594E-04 -0.12125074E-04 -0.11742072E-04
 -0.11295210E-04 -0.10789365E-04 -0.10229634E-04 -0.96212866E-05 -0.89697364E-05
 -0.82804965E-05 -0.75591441E-05 -0.68112837E-05 -0.60425111E-05 -0.52583789E-05
 -0.44643633E-05 -0.36658324E-05 -0.28680161E-05 -0.20759781E-05 -0.12945892E-05
 -0.52850323E-06  0.21786533E-06  0.94036142E-06  0.16351073E-05  0.22985180E-05
  0.29273150E-05  0.35185369E-05  0.40695486E-05  0.45780474E-05  0.50420674E-05
  0.54599817E-05  0.58305021E-05  0.61526771E-05  0.64258876E-05  0.66498407E-05
  0.68245623E-05  0.69503868E-05  0.70279463E-05  0.70581577E-05  0.70422087E-05
  0.69815423E-05  0.68778402E-05  0.67330060E-05  0.65491459E-05  0.63285507E-05
  0.60736753E-05  0.57871193E-05  0.54716065E-05  0.51299641E-05  0.47651028E-05
  0.43799954E-05  0.39776574E-05  0.35611266E-05  0.31334436E-05  0.26976331E-05
  0.22566851E-05  0.18135380E-05  0.13710609E-05  0.93203865E-06  0.49915625E-06
  0.74985325E-07 -0.33802878E-06 -0.73757865E-06 -0.11215053E-05 -0.14878073E-05
 -0.18346492E-05 -0.21603680E-05 -0.24634786E-05 -0.27426786E-05 -0.29968511E-05
 -0.32250662E-05 -0.34265825E-05 -0.36008456E-05 -0.37474871E-05 -0.38663216E-05
 -0.39573430E-05 -0.40207195E-05 -0.40567879E-05 -0.40660473E-05 -0.40491511E-05
 -0.40068991E-05 -0.39402288E-05 -0.38502054E-05 -0.37380125E-05 -0.36049409E-05
 -0.34523780E-05 -0.32817970E-05 -0.30947450E-05 -0.28928317E-05 -0.26777177E-05
 -0.24511028E-05 -0.22147146E-05 -0.19702971E-05 -0.17195990E-05 -0.14643635E-05
 -0.12063167E-05 -0.94715827E-06 -0.68855088E-06 -0.43211123E-06 -0.17940104E-06
  0.68081116E-07  0.30890758E-06  0.54172860E-06  0.76527871E-06  0.97838245E-06
  0.11799594E-05  0.13690283E-05  0.15447109E-05  0.17062346E-05  0.18529347E-05
  0.19842557E-05  0.20997520E-05  0.21990881E-05  0.22820378E-05  0.23484827E-05
  0.23984106E-05  0.24319128E-05  0.24491808E-05  0.24505029E-05  0.24362600E-05
  0.24069207E-05  0.23630364E-05  0.23052360E-05  0.22342201E-05  0.21507544E-05
  0.20556642E-05  0.19498271E-05  0.18341667E-05  0.17096457E-05  0.15772589E-05
  0.14380262E-05  0.12929862E-05  0.11431884E-05  0.98968723E-06  0.83353514E-06
  0.67577604E-06  0.51743909E-06  0.35953275E-06  0.20303893E-06  0.48907611E-07
 -0.10194834E-06 -0.24865792E-06 -0.39039639E-06 -0.52638931E-06 -0.65591616E-06
 -0.77831353E-06 -0.89297790E-06 -0.99936796E-06 -0.10970065E-05 -0.11854821E-05
 -0.12644496E-05 -0.13336314E-05 -0.13928171E-05 -0.14418636E-05 -0.14806940E-05
 -0.15092972E-05 -0.15277257E-05 -0.15360945E-05 -0.15345786E-05 -0.15234106E-05
 -0.15028780E-05 -0.14733201E-05 -0.14351249E-05 -0.13887253E-05 -0.13345958E-05
 -0.12732482E-05 -0.12052279E-05 -0.11311098E-05 -0.10514937E-05 -0.96700051E-06
 -0.87826762E-06 -0.78594470E-06 -0.69068939E-06 -0.59316308E-06 -0.49402668E-06
 -0.39393660E-06 -0.29354074E-06 -0.19347471E-06 -0.94358142E-07  0.32087999E-08
  0.98648681E-07  0.19140989E-06  0.28096947E-06  0.36683575E-06  0.44855070E-06
  0.52569203E-06  0.59787503E-06  0.66475412E-06  0.72602419E-06  0.78142156E-06
  0.83072474E-06  0.87375493E-06  0.91037615E-06  0.94049521E-06  0.96406135E-06
  0.98106565E-06  0.99154022E-06  0.99555710E-06  0.99322697E-06  0.98469768E-06
  0.97015251E-06  0.94980830E-06  0.92391344E-06  0.89274560E-06  0.85660946E-06
  0.81583425E-06  0.77077117E-06  0.72179077E-06  0.66928031E-06  0.61364093E-06
  0.55528494E-06  0.49463302E-06  0.43211147E-06  0.36814942E-06  0.30317614E-06
  0.23761838E-06  0.17189779E-06  0.10642840E-06  0.41614252E-07 -0.22152940E-07
 -0.84495926E-07 -0.14505397E-06 -0.20348474E-06 -0.25946606E-06 -0.31269748E-06
 -0.36290169E-06 -0.40982579E-06 -0.45324233E-06 -0.49295024E-06 -0.52877551E-06
 -0.56057173E-06 -0.58822046E-06 -0.61163137E-06 -0.63074227E-06 -0.64551892E-06
 -0.65595468E-06 -0.66207001E-06 -0.66391180E-06 -0.66155257E-06 -0.65508948E-06
 -0.64464331E-06 -0.63035716E-06 -0.61239522E-06 -0.59094126E-06 -0.56619716E-06
 -0.53838129E-06 -0.50772685E-06 -0.47448011E-06 -0.43889869E-06 -0.40124968E-06
 -0.36180785E-06 -0.32085380E-06 -0.27867210E-06 -0.23554945E-06 -0.19177290E-06
 -0.14762803E-06 -0.10339723E-06 -0.59358035E-07 -0.15781477E-07  0.27069454E-07
  0.68941283E-07  0.10959143E-06  0.14878951E-06  0.18631852E-06  0.22197590E-06
  0.25557458E-06  0.28694375E-06  0.31592969E-06  0.34239634E-06  0.36622584E-06
  0.38731891E-06  0.40559510E-06  0.42099294E-06  0.43346998E-06  0.44300268E-06
  0.44958621E-06  0.45323413E-06  0.45397795E-06  0.45186662E-06  0.44696592E-06
  0.43935768E-06  0.42913907E-06  0.41642161E-06  0.40133032E-06  0.38400262E-06
  0.36458730E-06  0.34324338E-06  0.32013892E-06  0.29544987E-06  0.26935876E-06
  0.24205353E-06  0.21372623E-06  0.18457177E-06  0.15478664E-06  0.12456772E-06
  0.94111017E-07  0.63610470E-07  0.33256812E-07  0.32364356E-08 -0.26269679E-07
 -0.55086980E-07 -0.83048311E-07 -0.10999481E-06 -0.13577673E-06 -0.16025422E-06
 -0.18329801E-06 -0.20479000E-06 -0.22462382E-06 -0.24270524E-06 -0.25895259E-06
 -0.27329699E-06 -0.28568257E-06 -0.29606660E-06 -0.30441950E-06 -0.31072480E-06
 -0.31497903E-06 -0.31719146E-06 -0.31738388E-06 -0.31559021E-06 -0.31185610E-06
 -0.30623842E-06 -0.29880474E-06 -0.28963270E-06 -0.27880938E-06 -0.26643058E-06
 -0.25260010E-06 -0.23742893E-06 -0.22103446E-06 -0.20353965E-06 -0.18507217E-06
 -0.16576352E-06 -0.14574817E-06 -0.12516265E-06 -0.10414472E-06 -0.82832453E-07
 -0.61363399E-07 -0.39873743E-07 -0.18497485E-07  0.26343491E-08  0.23394466E-07
  0.43660027E-07  0.63313332E-07  0.82242455E-07  0.10034184E-06  0.11751286E-06
  0.13366427E-06  0.14871269E-06  0.16258297E-06  0.17520849E-06  0.18653148E-06
  0.19650319E-06  0.20508406E-06  0.21224378E-06  0.21796138E-06  0.22222513E-06
  0.22503254E-06  0.22639016E-06  0.22631341E-06  0.22482634E-06  0.22196135E-06
  0.21775882E-06  0.21226678E-06  0.20554044E-06  0.19764175E-06  0.18863890E-06
  0.17860583E-06  0.16762163E-06  0.15577001E-06  0.14313867E-06  0.12981872E-06
  0.11590408E-06  0.10149079E-06  0.86676465E-07  0.71559597E-07  0.56238975E-07
  0.40813056E-07  0.25379365E-07  0.10033908E-07 -0.51293959E-08 -0.20019260E-07
 -0.34547551E-07 -0.48629785E-07 -0.62185585E-07 -0.75139115E-07 -0.87419477E-07
 -0.98961065E-07 -0.10970389E-06 -0.11959386E-06 -0.12858301E-06 -0.13662972E-06
 -0.14369885E-06 -0.14976189E-06 -0.15479699E-06 -0.15878899E-06 -0.16172945E-06
 -0.16361657E-06 -0.16445508E-06 -0.16425614E-06 -0.16303716E-06 -0.16082158E-06
 -0.15763866E-06 -0.15352316E-06 -0.14851511E-06 -0.14265942E-06 -0.13600555E-06
 -0.12860714E-06 -0.12052161E-06 -0.11180973E-06 -0.10253523E-06 -0.92764326E-07
 -0.82565291E-07 -0.72007998E-07 -0.61163465E-07 -0.50103397E-07 -0.38899736E-07
 -0.27624215E-07 -0.16347912E-07 -0.51408281E-08  0.59285300E-08  0.16793551E-07
  0.27389898E-07  0.37655876E-07  0.47532767E-07  0.56965148E-07  0.65901187E-07
  0.74292904E-07  0.82096410E-07  0.89272116E-07  0.95784914E-07  0.10160432E-06
  0.10670461E-06  0.11106488E-06  0.11466912E-06  0.11750624E-06  0.11957006E-06
  0.12085928E-06  0.12137740E-06  0.12113265E-06  0.12013786E-06  0.11841029E-06
  0.11597150E-06  0.11284710E-06  0.10906660E-06  0.10466311E-06  0.99673114E-07
  0.94136174E-07  0.88094665E-07  0.81593458E-07  0.74679606E-07  0.67402029E-07
  0.59811178E-07  0.51958703E-07  0.43897120E-07  0.35679472E-07  0.27358994E-07
  0.18988783E-07  0.10621471E-07  0.23089097E-08 -0.58981411E-08 -0.13950308E-07
 -0.21799890E-07 -0.29401128E-07 -0.36710458E-07 -0.43686751E-07 -0.50291527E-07
 -0.56489158E-07 -0.62247046E-07 -0.67535779E-07 -0.72329266E-07 -0.76604856E-07
 -0.80343419E-07 -0.83529424E-07 -0.86150974E-07 -0.88199833E-07 -0.89671426E-07
 -0.90564808E-07 -0.90882626E-07 -0.90631048E-07 -0.89819673E-07 -0.88461429E-07
 -0.86572440E-07 -0.84171886E-07 -0.81281839E-07 -0.77927087E-07 -0.74134942E-07
 -0.69935039E-07 -0.65359115E-07 -0.60440792E-07 -0.55215334E-07 -0.49719414E-07
 -0.43990863E-07 -0.38068426E-07 -0.31991503E-07 -0.25799905E-07 -0.19533596E-07
 -0.13232449E-07 -0.69359987E-08 -0.68320373E-09  0.54877859E-08  0.11539853E-07
  0.17437127E-07  0.23145190E-07  0.28631266E-07  0.33864403E-07  0.38815637E-07
  0.43458145E-07  0.47767378E-07  0.51721185E-07  0.55299914E-07  0.58486500E-07
  0.61266536E-07  0.63628321E-07  0.65562902E-07  0.67064087E-07  0.68128445E-07
  0.68755296E-07  0.68946669E-07  0.68707259E-07  0.68044361E-07  0.66967788E-07
  0.65489777E-07  0.63624882E-07  0.61389851E-07  0.58803498E-07  0.55886551E-07
  0.52661507E-07  0.49152464E-07  0.45384953E-07  0.41385761E-07  0.37182750E-07
  0.32804668E-07  0.28280964E-07  0.23641595E-07  0.18916832E-07  0.14137075E-07
  0.93326598E-08  0.45336709E-08 -0.23023726E-09 -0.49300196E-08 -0.95374107E-08
 -0.14025089E-07 -0.18366833E-07 -0.22537668E-07 -0.26514004E-07 -0.30273762E-07
 -0.33796492E-07 -0.37063475E-07 -0.40057820E-07 -0.42764539E-07 -0.45170619E-07
 -0.47265073E-07 -0.49038985E-07 -0.50485532E-07 -0.51600007E-07 -0.52379812E-07
 -0.52824453E-07 -0.52935514E-07 -0.52716616E-07 -0.52173376E-07 -0.51313339E-07
 -0.50145914E-07 -0.48682284E-07 -0.46935321E-07 -0.44919479E-07 -0.42650690E-07
 -0.40146243E-07 -0.37424662E-07 -0.34505576E-07 -0.31409580E-07 -0.28158102E-07
 -0.24773254E-07 -0.21277693E-07 -0.17694470E-07 -0.14046882E-07 -0.10358331E-07
 -0.66521720E-08 -0.29515738E-08  0.72062322E-09  0.43420435E-08  0.78909080E-08
  0.11346161E-07  0.14687592E-07  0.17895946E-07  0.20953036E-07  0.23841836E-07
  0.26546574E-07  0.29052813E-07  0.31347525E-07  0.33419149E-07  0.35257650E-07
  0.36854555E-07  0.38202994E-07  0.39297713E-07  0.40135093E-07  0.40713149E-07
  0.41031524E-07  0.41091468E-07  0.40895811E-07  0.40448931E-07  0.39756698E-07
  0.38826428E-07  0.37666817E-07  0.36287869E-07  0.34700821E-07  0.32918055E-07
  0.30953010E-07  0.28820087E-07  0.26534545E-07  0.24112399E-07  0.21570312E-07
  0.18925484E-07  0.16195537E-07  0.13398406E-07  0.10552219E-07  0.76751892E-08
  0.47854954E-08  0.19011747E-08 -0.95998873E-09 -0.37805697E-08 -0.65436053E-08
 -0.92326938E-08 -0.11832089E-07 -0.14326788E-07 -0.16702618E-07 -0.18946310E-07
 -0.21045572E-07 -0.22989151E-07 -0.24766892E-07 -0.26369787E-07 -0.27790014E-07
 -0.29020975E-07 -0.30057320E-07 -0.30894962E-07 -0.31531094E-07 -0.31964184E-07
 Kinetic energy density valence
  0.18956303E+03  0.18932861E+03  0.18862781E+03  0.18746800E+03  0.18586123E+03
  0.18382392E+03  0.18137647E+03  0.17854271E+03  0.17534940E+03  0.17182563E+03
  0.16800222E+03  0.16391115E+03  0.15958498E+03  0.15505642E+03  0.15035780E+03
  0.14552074E+03  0.14057575E+03  0.13555205E+03  0.13047728E+03  0.12537737E+03
  0.12027645E+03  0.11519674E+03  0.11015855E+03  0.10518026E+03  0.10027837E+03
  0.95467491E+02  0.90760487E+02  0.86168486E+02  0.81700992E+02  0.77365972E+02
  0.73169952E+02  0.69118115E+02  0.65214402E+02  0.61461610E+02  0.57861489E+02
  0.54414836E+02  0.51121591E+02  0.47980919E+02  0.44991297E+02  0.42150595E+02
  0.39456147E+02  0.36904825E+02  0.34493103E+02  0.32217120E+02  0.30072734E+02
  0.28055575E+02  0.26161094E+02  0.24384605E+02  0.22721327E+02  0.21166416E+02
  0.19715001E+02  0.18362210E+02  0.17103200E+02  0.15933173E+02  0.14847403E+02
  0.13841246E+02  0.12910164E+02  0.12049729E+02  0.11255639E+02  0.10523725E+02
  0.98499598E+01  0.92304621E+01  0.86615017E+01  0.81395024E+01  0.76610443E+01
  0.72228646E+01  0.68218576E+01  0.64550743E+01  0.61197208E+01  0.58131565E+01
  0.55328915E+01  0.52765834E+01  0.50420339E+01  0.48271856E+01  0.46301170E+01
  0.44490390E+01  0.42822900E+01  0.41283312E+01  0.39857421E+01  0.38532154E+01
  0.37295520E+01  0.36136562E+01  0.35045305E+01  0.34012710E+01  0.33030619E+01
  0.32091710E+01  0.31189450E+01  0.30318040E+01  0.29472379E+01  0.28648008E+01
  0.27841074E+01  0.27048279E+01  0.26266844E+01  0.25494467E+01  0.24729280E+01
  0.23969815E+01  0.23214968E+01  0.22463958E+01  0.21716302E+01  0.20971778E+01
  0.20230395E+01  0.19492365E+01  0.18758077E+01  0.18028069E+01  0.17303006E+01
  0.16583656E+01  0.15870871E+01  0.15165562E+01  0.14468689E+01  0.13781238E+01
  0.13104208E+01  0.12438598E+01  0.11785391E+01  0.11145547E+01  0.10519989E+01
  0.99095983E+00  0.93152016E+00  0.87375686E+00  0.81774043E+00  0.76353450E+00
  0.71119544E+00  0.66077207E+00  0.61230549E+00  0.56582896E+00  0.52136783E+00
  0.47893957E+00  0.43855388E+00  0.40021280E+00  0.36391092E+00  0.32963565E+00
  0.29736742E+00  0.26708010E+00  0.23874130E+00  0.21231275E+00  0.18775072E+00
  0.16500644E+00  0.14402653E+00  0.12475348E+00  0.10712605E+00  0.91079783E-01
  0.76547449E-01  0.63459491E-01  0.51744486E-01  0.41329590E-01  0.32140965E-01
  0.24104200E-01  0.17144712E-01  0.11188134E-01  0.61606790E-02  0.19894863E-02
 -0.13970542E-02 -0.40690004E-02 -0.60945808E-02 -0.75399410E-02 -0.84689146E-02
 -0.89428193E-02 -0.90202783E-02 -0.87570663E-02 -0.82059799E-02 -0.74167328E-02
 -0.64358750E-02 -0.53067343E-02 -0.40693810E-02 -0.27606138E-02 -0.14139663E-02
 -0.59732923E-04  0.12749867E-02  0.25662260E-02  0.37930741E-02  0.49375832E-02
  0.59846637E-02  0.69219660E-02  0.77397528E-02  0.84307611E-02  0.89900574E-02
  0.94148853E-02  0.97045087E-02  0.98600503E-02  0.98843280E-02  0.97816898E-02
  0.95578480E-02  0.92197147E-02  0.87752391E-02  0.82332476E-02  0.76032878E-02
  0.68954772E-02  0.61203576E-02  0.52887553E-02  0.44116486E-02  0.35000428E-02
  0.25648522E-02  0.16167919E-02  0.66627706E-03 -0.27666849E-03 -0.12024944E-02
 -0.21021967E-02 -0.29673819E-02 -0.37903215E-02 -0.45639967E-02 -0.52821359E-02
 -0.59392412E-02 -0.65306079E-02 -0.70523353E-02 -0.75013295E-02 -0.78752987E-02
 -0.81727417E-02 -0.83929296E-02 -0.85358812E-02 -0.86023334E-02 -0.85937059E-02
 -0.85120617E-02 -0.83600635E-02 -0.81409266E-02 -0.78583693E-02 -0.75165605E-02
 -0.71200657E-02 -0.66737920E-02 -0.61829321E-02 -0.56529079E-02 -0.50893150E-02
 -0.44978672E-02 -0.38843425E-02 -0.32545309E-02 -0.26141834E-02 -0.19689639E-02
 -0.13244036E-02 -0.68585786E-03 -0.58466483E-04  0.55288268E-03  0.11435869E-02
  0.17093577E-02  0.22462471E-02  0.27506689E-02  0.32194172E-02  0.36496805E-02
  0.40390523E-02  0.43855377E-02  0.46875566E-02  0.49439432E-02  0.51539420E-02
  0.53172007E-02  0.54337604E-02  0.55040418E-02  0.55288298E-02  0.55092555E-02
  0.54467752E-02  0.53431483E-02  0.52004134E-02  0.50208622E-02  0.48070129E-02
  0.45615828E-02  0.42874594E-02  0.39876715E-02  0.36653607E-02  0.33237519E-02
  0.29661247E-02  0.25957853E-02  0.22160392E-02  0.18301641E-02  0.14413849E-02
  0.10528495E-02  0.66760582E-03  0.28858065E-03 -0.81439835E-04 -0.43982785E-03
 -0.78412998E-03 -0.11120811E-02 -0.14216164E-02 -0.17108815E-02 -0.19782404E-02
 -0.22222814E-02 -0.24418212E-02 -0.26359069E-02 -0.28038162E-02 -0.29450557E-02
 -0.30593572E-02 -0.31466729E-02 -0.32071684E-02 -0.32412144E-02 -0.32493775E-02
 -0.32324088E-02 -0.31912325E-02 -0.31269324E-02 -0.30407388E-02 -0.29340132E-02
 -0.28082340E-02 -0.26649804E-02 -0.25059170E-02 -0.23327778E-02 -0.21473500E-02
 -0.19514585E-02 -0.17469500E-02 -0.15356778E-02 -0.13194870E-02 -0.11002002E-02
 -0.87960392E-03 -0.65943568E-03 -0.44137206E-03 -0.22701745E-03 -0.17893864E-04
  0.18456825E-03  0.37903817E-03  0.56429206E-03  0.73921888E-03  0.90282538E-03
  0.10542398E-02  0.11927148E-02  0.13176288E-02  0.14284865E-02  0.15249190E-02
  0.16066815E-02  0.16736517E-02  0.17258259E-02  0.17633154E-02  0.17863411E-02
  0.17952284E-02  0.17904005E-02  0.17723722E-02  0.17417420E-02  0.16991846E-02
  0.16454434E-02  0.15813212E-02  0.15076726E-02  0.14253950E-02  0.13354203E-02
  0.12387056E-02  0.11362258E-02  0.10289642E-02  0.91790529E-03  0.80402636E-03
  0.68829038E-03  0.57163886E-03  0.45498516E-03  0.33920842E-03  0.22514785E-03
  0.11359767E-03  0.53024740E-05 -0.99046685E-04 -0.19881575E-03 -0.29343046E-03
 -0.38237857E-03 -0.46521152E-03 -0.54154544E-03 -0.61106169E-03 -0.67350680E-03
 -0.72869186E-03 -0.77649147E-03 -0.81684215E-03 -0.84974037E-03 -0.87524013E-03
 -0.89345015E-03 -0.90453079E-03 -0.90869063E-03 -0.90618277E-03 -0.89730097E-03
 -0.88237559E-03 -0.86176940E-03 -0.83587329E-03 -0.80510191E-03 -0.76988939E-03
 -0.73068493E-03 -0.68794862E-03 -0.64214719E-03 -0.59375001E-03 -0.54322523E-03
 -0.49103597E-03 -0.43763694E-03 -0.38347108E-03 -0.32896655E-03 -0.27453398E-03
 -0.22056399E-03 -0.16742493E-03 -0.11546102E-03 -0.64990672E-04 -0.16305227E-04
  0.30332121E-04  0.74687049E-04  0.11655456E-03  0.15575917E-03  0.19215482E-03
  0.22562453E-03  0.25607983E-03  0.28346000E-03  0.30773102E-03  0.32888445E-03
  0.34693602E-03  0.36192419E-03  0.37390854E-03  0.38296802E-03  0.38919919E-03
  0.39271434E-03  0.39363962E-03  0.39211310E-03  0.38828287E-03  0.38230513E-03
  0.37434235E-03  0.36456146E-03  0.35313206E-03  0.34022484E-03  0.32600993E-03
  0.31065549E-03  0.29432635E-03  0.27718275E-03  0.25937929E-03  0.24106389E-03
  0.22237702E-03  0.20345095E-03  0.18440920E-03  0.16536611E-03  0.14642654E-03
  0.12768569E-03  0.10922905E-03  0.91132452E-04  0.73462244E-04  0.56275569E-04
  0.39620707E-04  0.23537521E-04  0.80579651E-05 -0.67933505E-05 -0.20998539E-04
 -0.34545784E-04 -0.47428656E-04 -0.59645414E-04 -0.71198299E-04 -0.82092833E-04
 -0.92337131E-04 -0.10194123E-03 -0.11091647E-03 -0.11927488E-03 -0.12702862E-03
 -0.13418951E-03 -0.14076856E-03 -0.14677559E-03 -0.15221894E-03 -0.15710517E-03
 -0.16143890E-03 -0.16522271E-03 -0.16845704E-03 -0.17114027E-03 -0.17326875E-03
 -0.17483696E-03 -0.17583774E-03 -0.17626247E-03 -0.17610145E-03 -0.17534418E-03
 -0.17397977E-03 -0.17199735E-03 -0.16938647E-03 -0.16613760E-03 -0.16224251E-03
 -0.15769480E-03 -0.15249030E-03 -0.14662752E-03 -0.14010810E-03 -0.13293713E-03
 -0.12512359E-03 -0.11668060E-03 -0.10762576E-03 -0.97981316E-04 -0.87774395E-04
 -0.77037091E-04 -0.65806537E-04 -0.54124908E-04 -0.42039361E-04 -0.29601914E-04
 -0.16869258E-04 -0.39025128E-05  0.92330800E-05  0.22468521E-04  0.35731474E-04
  0.48946733E-04  0.62036742E-04  0.74922156E-04  0.87522434E-04  0.99756474E-04
  0.11154326E-03  0.12280253E-03  0.13345548E-03  0.14342543E-03  0.15263854E-03
  0.16102446E-03  0.16851702E-03  0.17505484E-03  0.18058200E-03  0.18504855E-03
  0.18841109E-03  0.19063326E-03  0.19168614E-03  0.19154867E-03  0.19020794E-03
  0.18765946E-03  0.18390731E-03  0.17896430E-03  0.17285197E-03  0.16560055E-03
  0.15724890E-03  0.14784427E-03  0.13744205E-03  0.12610547E-03  0.11390517E-03
  0.10091876E-03  0.87230266E-04  0.72929549E-04  0.58111675E-04  0.42876216E-04
  0.27326516E-04  0.11568922E-04 -0.42880124E-05 -0.20134359E-04 -0.35859649E-04
 -0.51353727E-04 -0.66507604E-04 -0.81214302E-04 -0.95369693E-04 -0.10887331E-03
 -0.12162915E-03 -0.13354642E-03 -0.14454024E-03 -0.15453234E-03 -0.16345168E-03
 -0.17123500E-03 -0.17782731E-03 -0.18318237E-03 -0.18726300E-03 -0.19004144E-03
 -0.19149951E-03 -0.19162879E-03 -0.19043065E-03 -0.18791631E-03 -0.18410664E-03
 -0.17903211E-03 -0.17273244E-03 -0.16525638E-03 -0.15666122E-03 -0.14701243E-03
 -0.13638308E-03 -0.12485329E-03 -0.11250957E-03 -0.99444172E-04 -0.85754354E-04
 -0.71541605E-04 -0.56910865E-04 -0.41969709E-04 -0.26827511E-04 -0.11594598E-04
  0.36185943E-05  0.18702367E-04  0.33548594E-04  0.48051538E-04  0.62108644E-04
  0.75621306E-04  0.88495595E-04  0.10064295E-03  0.11198081E-03  0.12243321E-03
  0.13193132E-03  0.14041393E-03  0.14782781E-03  0.15412811E-03  0.15927864E-03
  0.16325202E-03  0.16602987E-03  0.16760286E-03  0.16797070E-03  0.16714207E-03
  0.16513445E-03  0.16197394E-03  0.15769496E-03  0.15233991E-03  0.14595878E-03
  0.13860868E-03  0.13035333E-03  0.12126253E-03  0.11141154E-03  0.10088045E-03
  0.89753551E-04  0.78118585E-04  0.66066091E-04  0.53688661E-04  0.41080215E-04
  0.28335267E-04  0.15548201E-04  0.28125510E-05 -0.97796969E-05 -0.22138790E-04
 -0.34177863E-04 -0.45813560E-04 -0.56966628E-04 -0.67562461E-04 -0.77531609E-04
 -0.86810237E-04 -0.95340531E-04 -0.10307106E-03 -0.10995706E-03 -0.11596072E-03
 -0.12105131E-03 -0.12520537E-03 -0.12840673E-03 -0.13064656E-03 -0.13192331E-03
 -0.13224262E-03 -0.13161714E-03 -0.13006636E-03 -0.12761633E-03 -0.12429934E-03
 -0.12015362E-03 -0.11522290E-03 -0.10955603E-03 -0.10320649E-03 -0.96231917E-04
 -0.88693592E-04 -0.80655915E-04 -0.72185858E-04 -0.63352408E-04 -0.54226007E-04
 -0.44877992E-04 -0.35380033E-04 -0.25803584E-04 -0.16219342E-04 -0.66967262E-05
  0.26966280E-05  0.11895347E-04  0.20836773E-04  0.29461386E-04  0.37713194E-04
  0.45540088E-04  0.52894156E-04  0.59731969E-04  0.66014808E-04  0.71708866E-04
  0.76785400E-04  0.81220839E-04  0.84996855E-04  0.88100384E-04  0.90523612E-04
  0.92263916E-04  0.93323769E-04  0.93710604E-04  0.93436644E-04  0.92518700E-04
  0.90977934E-04  0.88839595E-04  0.86132734E-04  0.82889885E-04  0.79146739E-04
  0.74941794E-04  0.70315991E-04  0.65312343E-04  0.59975558E-04  0.54351651E-04
  0.48487568E-04  0.42430800E-04  0.36229010E-04  0.29929667E-04  0.23579690E-04
  0.17225110E-04  0.10910740E-04  0.46798749E-05 -0.14259993E-05 -0.73674652E-05
 -0.13107415E-04 -0.18611264E-04 -0.23847141E-04 -0.28786045E-04 -0.33401983E-04
 -0.37672074E-04 -0.41576627E-04 -0.45099192E-04 -0.48226580E-04 -0.50948865E-04
 -0.53259348E-04 -0.55154507E-04 -0.56633918E-04 -0.57700156E-04 -0.58358671E-04
 -0.58617655E-04 -0.58487881E-04 -0.57982530E-04 -0.57117010E-04 -0.55908760E-04
 -0.54377040E-04 -0.52542723E-04 -0.50428073E-04 -0.48056529E-04 -0.45452480E-04
 -0.42641044E-04 -0.39647851E-04 -0.36498828E-04 -0.33219993E-04 -0.29837253E-04
 -0.26376213E-04 -0.22862000E-04 -0.19319088E-04 -0.15771145E-04 -0.12240894E-04
 -0.87499767E-05 -0.53188463E-05 -0.19666660E-05  0.12887734E-05  0.44311216E-05
  0.74455211E-05  0.10318645E-04  0.13038718E-04  0.15595528E-04  0.17980418E-04
  0.20186266E-04  0.22207461E-04  0.24039852E-04  0.25680706E-04  0.27128636E-04
  0.28383541E-04  0.29446522E-04  0.30319803E-04  0.31006642E-04  0.31511242E-04
  0.31838653E-04  0.31994681E-04  0.31985792E-04  0.31819013E-04  0.31501846E-04
  0.31042172E-04  0.30448165E-04  0.29728210E-04  0.28890827E-04  0.27944592E-04
  0.26898079E-04  0.25759793E-04  0.24538117E-04  0.23241272E-04  0.21877267E-04
  0.20453873E-04  0.18978598E-04  0.17458661E-04  0.15900986E-04  0.14312194E-04
  0.12698601E-04  0.11066223E-04  0.94207871E-05  0.77677437E-05  0.61122858E-05
  0.44593691E-05  0.28137349E-05  0.11799358E-05 -0.43763888E-06 -0.20347357E-05
 -0.36072113E-05 -0.51510065E-05 -0.66621219E-05 -0.81365960E-05 -0.95704853E-05
 -0.10959848E-04 -0.12300728E-04 -0.13589150E-04 -0.14821110E-04 -0.15992574E-04
 -0.17099483E-04 -0.18137759E-04 -0.19103318E-04 -0.19992085E-04 -0.20800017E-04
 -0.21523125E-04 -0.22157505E-04 -0.22699370E-04 -0.23145087E-04 -0.23491209E-04
 -0.23734525E-04 -0.23872096E-04 -0.23901298E-04 -0.23819872E-04 -0.23625961E-04
 -0.23318159E-04 -0.22895551E-04 -0.22357751E-04 -0.21704946E-04 -0.20937926E-04
 -0.20058115E-04 -0.19067600E-04 -0.17969154E-04 -0.16766248E-04 -0.15463069E-04
 -0.14064520E-04 -0.12576219E-04 -0.11004498E-04 -0.93563782E-05 -0.76395586E-05
 -0.58623819E-05 -0.40338018E-05 -0.21633412E-05 -0.26104360E-06  0.16625807E-05
  0.35966155E-05  0.55298044E-05  0.74506221E-05  0.93473495E-05  0.11208154E-04
  0.13021172E-04  0.14774594E-04  0.16456754E-04  0.18056217E-04  0.19561867E-04
  0.20962999E-04  0.22249406E-04  0.23411462E-04  0.24440209E-04  0.25327434E-04
  0.26065747E-04  0.26648646E-04  0.27070590E-04  0.27327047E-04  0.27414555E-04
  0.27330758E-04  0.27074447E-04  0.26645583E-04  0.26045318E-04  0.25276002E-04
  0.24341184E-04  0.23245605E-04  0.21995172E-04  0.20596937E-04  0.19059052E-04
  0.17390729E-04  0.15602179E-04  0.13704549E-04  0.11709850E-04  0.96308768E-05
  0.74811215E-05  0.52746795E-05  0.30261513E-05  0.75053906E-06 -0.15368615E-05
 -0.38205713E-05 -0.60850416E-05 -0.83147678E-05 -0.10494405E-04 -0.12608882E-04
 -0.14643514E-04 -0.16584115E-04 -0.18417104E-04 -0.20129609E-04 -0.21709565E-04
 -0.23145808E-04 -0.24428160E-04 -0.25547508E-04 -0.26495879E-04 -0.27266496E-04
 -0.27853836E-04 -0.28253676E-04 -0.28463120E-04 -0.28480633E-04 -0.28306046E-04
 -0.27940566E-04 -0.27386763E-04 -0.26648559E-04 -0.25731194E-04 -0.24641191E-04
 -0.23386308E-04 -0.21975479E-04 -0.20418752E-04 -0.18727206E-04 -0.16912877E-04
 -0.14988664E-04 -0.12968231E-04 -0.10865908E-04 -0.86965839E-05 -0.64755921E-05
 -0.42185994E-05 -0.19414883E-05  0.33976098E-06  0.26091890E-05  0.48509745E-05
  0.70495513E-05  0.91897222E-05  0.11256770E-04  0.13236564E-04  0.15115662E-04
  0.16881407E-04  0.18522017E-04  0.20026668E-04  0.21385568E-04  0.22590025E-04
  0.23632504E-04  0.24506679E-04  0.25207469E-04  0.25731069E-04  0.26074974E-04
  0.26237983E-04  0.26220203E-04  0.26023039E-04  0.25649173E-04  0.25102536E-04
  0.24388271E-04  0.23512683E-04  0.22483187E-04  0.21308241E-04  0.19997276E-04
  0.18560623E-04  0.17009420E-04  0.15355533E-04  0.13611454E-04  0.11790208E-04
  0.99052528E-05  0.79703710E-05  0.59995704E-05  0.40069765E-05  0.20067282E-05
  0.12873379E-07 -0.19607330E-05 -0.39005286E-05 -0.57933401E-05 -0.76264755E-05
 -0.93878120E-05 -0.11065878E-04 -0.12649929E-04 -0.14130021E-04 -0.15497067E-04
 -0.16742900E-04 -0.17860318E-04 -0.18843124E-04 -0.19686160E-04 -0.20385329E-04
 -0.20937614E-04 -0.21341083E-04 -0.21594886E-04 -0.21699254E-04 -0.21655472E-04
 -0.21465863E-04 -0.21133750E-04 -0.20663422E-04 -0.20060082E-04 -0.19329802E-04
 -0.18479460E-04 -0.17516683E-04 -0.16449771E-04 -0.15287635E-04 -0.14039716E-04
 -0.12715912E-04 -0.11326494E-04 -0.98820288E-05 -0.83932942E-05 -0.68711997E-05
 -0.53267037E-05 -0.37707333E-05 -0.22141055E-05 -0.66745139E-06  0.85885806E-06
  0.23547817E-05  0.38106750E-05  0.52173516E-05  0.65661415E-05  0.78489430E-05
  0.90582700E-05  0.10187294E-04  0.11229878E-04  0.12180611E-04  0.13034825E-04
  0.13788620E-04  0.14438871E-04  0.14983233E-04  0.15420145E-04  0.15748820E-04
  0.15969236E-04  0.16082117E-04  0.16088910E-04  0.15991759E-04  0.15793475E-04
  0.15497496E-04  0.15107851E-04  0.14629115E-04  0.14066362E-04  0.13425120E-04
  0.12711317E-04  0.11931228E-04  0.11091428E-04  0.10198728E-04  0.92601273E-05
  0.82827583E-05  0.72738304E-05  0.62405784E-05  0.51902113E-05  0.41298618E-05
  0.30665387E-05  0.20070818E-05  0.95811882E-06 -0.73974448E-07 -0.10831107E-05
 -0.20635248E-05 -0.30098033E-05 -0.39169116E-05 -0.47802155E-05 -0.55955015E-05
 -0.63589909E-05 -0.70673518E-05 -0.77177068E-05 -0.83076371E-05 -0.88351830E-05
 -0.92988415E-05 -0.96975595E-05 -0.10030726E-04 -0.10298157E-04 -0.10500087E-04
 atomic pseudo charge-density
  0.60000000E+01  0.59917682E+01  0.59671789E+01  0.59265479E+01  0.58703891E+01
  0.57993990E+01  0.57144341E+01  0.56164855E+01  0.55066511E+01  0.53861066E+01
  0.52560766E+01  0.51178084E+01  0.49725469E+01  0.48215134E+01  0.46658876E+01
  0.45067929E+01  0.43452859E+01  0.41823479E+01  0.40188803E+01  0.38557025E+01
  0.36935506E+01  0.35330798E+01  0.33748662E+01  0.32194109E+01  0.30671444E+01
  0.29184307E+01  0.27735730E+01  0.26328185E+01  0.24963632E+01  0.23643571E+01
  0.22369087E+01  0.21140897E+01  0.19959388E+01  0.18824658E+01  0.17736551E+01
  0.16694691E+01  0.15698510E+01  0.14747279E+01  0.13840130E+01  0.12976078E+01
  0.12154045E+01  0.11372872E+01  0.10631344E+01  0.99281941E+00  0.92621249E+00
  0.86318152E+00  0.80359314E+00  0.74731357E+00  0.69420943E+00  0.64414831E+00
  0.59699943E+00  0.55263403E+00  0.51092581E+00  0.47175127E+00  0.43498999E+00
  0.40052481E+00  0.36824205E+00  0.33803164E+00  0.30978717E+00  0.28340598E+00
  0.25878921E+00  0.23584178E+00  0.21447237E+00  0.19459343E+00  0.17612108E+00
  0.15897509E+00  0.14307879E+00  0.12835897E+00  0.11474584E+00  0.10217290E+00
  0.90576829E-01  0.79897429E-01  0.70077480E-01  0.61062655E-01  0.52801404E-01
  0.45244856E-01  0.38346707E-01  0.32063121E-01  0.26352623E-01  0.21176003E-01
  0.16496215E-01  0.12278281E-01  0.84891981E-02  0.50978488E-02  0.20749113E-02
 -0.60722379E-03 -0.29745365E-02 -0.50514558E-02 -0.68609362E-02 -0.84245308E-02
 -0.97624615E-02 -0.10893686E-01 -0.11835965E-01 -0.12605919E-01 -0.13219093E-01
 -0.13690009E-01 -0.14032225E-01 -0.14258381E-01 -0.14380251E-01 -0.14408793E-01
 -0.14354189E-01 -0.14225891E-01 -0.14032660E-01 -0.13782607E-01 -0.13483228E-01
 -0.13141441E-01 -0.12763619E-01 -0.12355619E-01 -0.11922818E-01 -0.11470137E-01
 -0.11002072E-01 -0.10522716E-01 -0.10035788E-01 -0.95446538E-02 -0.90523501E-02
 -0.85616041E-02 -0.80748546E-02 -0.75942711E-02 -0.71217720E-02 -0.66590413E-02
 -0.62075455E-02 -0.57685489E-02 -0.53431281E-02 -0.49321863E-02 -0.45364661E-02
 -0.41565619E-02 -0.37929322E-02 -0.34459103E-02 -0.31157151E-02 -0.28024609E-02
 -0.25061667E-02 -0.22267656E-02 -0.19641128E-02 -0.17179932E-02 -0.14881294E-02
 -0.12741886E-02 -0.10757887E-02 -0.89250485E-03 -0.72387532E-03 -0.56940654E-03
 -0.42857840E-03 -0.30084889E-03 -0.18565853E-03 -0.82434403E-04  0.94060410E-05
  0.90451459E-04  0.16129340E-03  0.22252333E-03  0.27472986E-03  0.31849633E-03
  0.35439845E-03  0.38300229E-03  0.40486239E-03  0.42052016E-03  0.43050232E-03
  0.43531967E-03  0.43546592E-03  0.43141669E-03  0.42362876E-03  0.41253931E-03
  0.39856538E-03  0.38210349E-03  0.36352929E-03  0.34319738E-03  0.32144120E-03
  0.29857309E-03  0.27488433E-03  0.25064534E-03  0.22610595E-03  0.20149575E-03
  0.17702443E-03  0.15288229E-03  0.12924076E-03  0.10625289E-03  0.84054059E-04
  0.62762532E-04  0.42480185E-04  0.23293202E-04  0.52728021E-05 -0.11524002E-04
 -0.27053639E-04 -0.41285201E-04 -0.54199652E-04 -0.65789040E-04 -0.76055702E-04
 -0.85011475E-04 -0.92676915E-04 -0.99080515E-04 -0.10425795E-03 -0.10825132E-03
 -0.11110843E-03 -0.11288204E-03 -0.11362924E-03 -0.11341070E-03 -0.11229008E-03
 -0.11033340E-03 -0.10760841E-03 -0.10418409E-03 -0.10013005E-03 -0.95516070E-04
 -0.90411621E-04 -0.84885399E-04 -0.79004937E-04 -0.72836218E-04 -0.66443335E-04
 -0.59888170E-04 -0.53230119E-04 -0.46525841E-04 -0.39829033E-04 -0.33190251E-04
 -0.26656743E-04 -0.20272327E-04 -0.14077285E-04 -0.81082927E-05 -0.23983694E-05
  0.30231414E-05  0.81305715E-05  0.12901903E-04  0.17318722E-04  0.21366153E-04
  0.25032773E-04  0.28310509E-04  0.31194521E-04  0.33683069E-04  0.35777365E-04
  0.37481420E-04  0.38801874E-04  0.39747818E-04  0.40330616E-04  0.40563712E-04
  0.40462441E-04  0.40043826E-04  0.39326386E-04  0.38329936E-04  0.37075385E-04
  0.35584547E-04  0.33879942E-04  0.31984611E-04  0.29921930E-04  0.27715431E-04
  0.25388635E-04  0.22964882E-04  0.20467181E-04  0.17918062E-04  0.15339436E-04
  0.12752471E-04  0.10177473E-04  0.76337807E-05  0.51396687E-05  0.27122644E-05
  0.36747347E-06 -0.18800818E-05 -0.40171137E-05 -0.60317091E-05 -0.79133585E-05
 -0.96529743E-05 -0.11242899E-04 -0.12676904E-04 -0.13950175E-04 -0.15059296E-04
 -0.16002212E-04 -0.16778201E-04 -0.17387819E-04 -0.17832851E-04 -0.18116253E-04
 -0.18242084E-04 -0.18215437E-04 -0.18042361E-04 -0.17729785E-04 -0.17285434E-04
 -0.16717743E-04 -0.16035772E-04 -0.15249113E-04 -0.14367807E-04 -0.13402247E-04
 -0.12363097E-04 -0.11261200E-04 -0.10107490E-04 -0.89129138E-05 -0.76883457E-05
 -0.64445112E-05 -0.51919123E-05 -0.39407577E-05 -0.27008965E-05 -0.14817574E-05
 -0.29229234E-06  0.85907434E-06  0.19644914E-05  0.30167207E-05  0.40091716E-05
  0.49359292E-05  0.57917773E-05  0.65722154E-05  0.72734700E-05  0.78924998E-05
  0.84269965E-05  0.88753790E-05  0.92367833E-05  0.95110471E-05  0.96986898E-05
  0.98008880E-05  0.98194471E-05  0.97567688E-05  0.96158151E-05  0.94000700E-05
  0.91134970E-05  0.87604960E-05  0.83458562E-05  0.78747095E-05  0.73524808E-05
  0.67848391E-05  0.61776466E-05  0.55369090E-05  0.48687256E-05  0.41792397E-05
  0.34745906E-05  0.27608668E-05  0.20440603E-05  0.13300234E-05  0.62442752E-06
 -0.67275543E-07 -0.73988984E-06 -0.13885085E-05 -0.20085437E-05 -0.25957544E-05
 -0.31462690E-05 -0.36566068E-05 -0.41236942E-05 -0.45448781E-05 -0.49179360E-05
 -0.52410825E-05 -0.55129715E-05 -0.57326965E-05 -0.58997860E-05 -0.60141970E-05
 -0.60763044E-05 -0.60868884E-05 -0.60471179E-05 -0.59585327E-05 -0.58230223E-05
 -0.56428029E-05 -0.54203924E-05 -0.51585835E-05 -0.48604160E-05 -0.45291465E-05
 -0.41682189E-05 -0.37812323E-05 -0.33719099E-05 -0.29440671E-05 -0.25015791E-05
 -0.20483498E-05 -0.15882802E-05 -0.11252383E-05 -0.66302927E-06 -0.20536724E-06
  0.24415185E-06  0.68207580E-06  0.11051201E-05  0.15101899E-05  0.18944005E-05
  0.22550950E-05  0.25898606E-05  0.28965421E-05  0.31732536E-05  0.34183875E-05
  0.36306211E-05  0.38089213E-05  0.39525465E-05  0.40610464E-05  0.41342599E-05
  0.41723095E-05  0.41755957E-05  0.41447873E-05  0.40808110E-05  0.39848390E-05
  0.38582747E-05  0.37027372E-05  0.35200439E-05  0.33121927E-05  0.30813423E-05
  0.28297923E-05  0.25599623E-05  0.22743704E-05  0.19756113E-05  0.16663349E-05
  0.13492238E-05  0.10269718E-05  0.70226248E-06  0.37774812E-06  0.56029463E-07
 -0.26036379E-06 -0.56899162E-06 -0.86752121E-06 -0.11537433E-05 -0.14255874E-05
 -0.16811355E-05 -0.19186341E-05 -0.21365054E-05 -0.23333563E-05 -0.25079860E-05
 -0.26593919E-05 -0.27867742E-05 -0.28895379E-05 -0.29672944E-05 -0.30198606E-05
 -0.30472565E-05 -0.30497017E-05 -0.30276098E-05 -0.29815818E-05 -0.29123982E-05
 -0.28210093E-05 -0.27085250E-05 -0.25762031E-05 -0.24254369E-05 -0.22577417E-05
 -0.20747408E-05 -0.18781508E-05 -0.16697664E-05 -0.14514451E-05 -0.12250912E-05
 -0.99264006E-06 -0.75604259E-06 -0.51724921E-06 -0.27819473E-06 -0.40783321E-07
  0.19312597E-06  0.42173309E-06  0.64331014E-06  0.85621377E-06  0.10588967E-05
  0.12499182E-05  0.14279538E-05  0.15918037E-05  0.17403999E-05  0.18728127E-05
  0.19882556E-05  0.20860890E-05  0.21658229E-05  0.22271184E-05  0.22697873E-05
  0.22937918E-05  0.22992419E-05  0.22863920E-05  0.22556368E-05  0.22075058E-05
  0.21426567E-05  0.20618685E-05  0.19660329E-05  0.18561461E-05  0.17332984E-05
  0.15986651E-05  0.14534948E-05  0.12990994E-05  0.11368420E-05  0.96812573E-06
  0.79438207E-06  0.61705901E-06  0.43760951E-06  0.25747998E-06  0.78099021E-07
 -0.99133487E-07 -0.27285691E-06 -0.44175991E-06 -0.60458994E-06 -0.76016212E-06
 -0.90736744E-06 -0.10451803E-05 -0.11726650E-05 -0.12889819E-05 -0.13933925E-05
 -0.14852631E-05 -0.15640688E-05 -0.16293953E-05 -0.16809406E-05 -0.17185156E-05
 -0.17420437E-05 -0.17515598E-05 -0.17472077E-05 -0.17292380E-05 -0.16980037E-05
 -0.16539563E-05 -0.15976406E-05 -0.15296886E-05 -0.14508136E-05 -0.13618031E-05
 -0.12635116E-05 -0.11568524E-05 -0.10427903E-05 -0.92233235E-06 -0.79652000E-06
 -0.66642000E-06 -0.53311582E-06 -0.39769884E-06 -0.26125973E-06 -0.12487991E-06
  0.10376743E-07  0.14347194E-06  0.27340070E-06  0.39919865E-06  0.51994892E-06
  0.63478855E-06  0.74291440E-06  0.84358840E-06  0.93614237E-06  0.10199820E-05
  0.10945905E-05  0.11595312E-05  0.12144497E-05  0.12590755E-05  0.12932226E-05
  0.13167896E-05  0.13297593E-05  0.13321972E-05  0.13242500E-05  0.13061429E-05
  0.12781768E-05  0.12407243E-05  0.11942263E-05  0.11391870E-05  0.10761690E-05
  0.10057881E-05  0.92870765E-06  0.84563242E-06  0.75730267E-06  0.66448769E-06
  0.56797936E-06  0.46858561E-06  0.36712387E-06  0.26441456E-06  0.16127462E-06
  0.58511240E-07 -0.43084299E-07 -0.14274251E-06 -0.23972134E-06 -0.33331153E-06
 -0.42284155E-06 -0.50768228E-06 -0.58725116E-06 -0.66101600E-06 -0.72849830E-06
 -0.78927607E-06 -0.84298625E-06 -0.88932650E-06 -0.92805663E-06 -0.95899939E-06
 -0.98204088E-06 -0.99713034E-06 -0.10042796E-05 -0.10035617E-05 -0.99510992E-06
 -0.97911492E-06 -0.95582299E-06 -0.92553292E-06 -0.88859287E-06 -0.84539685E-06
 -0.79638091E-06 -0.74201904E-06 -0.68281887E-06 -0.61931718E-06 -0.55207522E-06
 -0.48167399E-06 -0.40870934E-06 -0.33378715E-06 -0.25751842E-06 -0.18051447E-06
 -0.10338216E-06 -0.26719275E-07  0.48889971E-07  0.12287925E-06  0.19470419E-06
  0.26384628E-06  0.32981642E-06  0.39215822E-06  0.45045103E-06  0.50431256E-06
  0.55340123E-06  0.59741810E-06  0.63610853E-06  0.66926332E-06  0.69671965E-06
  0.71836148E-06  0.73411971E-06  0.74397192E-06  0.74794171E-06  0.74609775E-06
  0.73855252E-06  0.72546063E-06  0.70701694E-06  0.68345434E-06  0.65504133E-06
  0.62207928E-06  0.58489958E-06  0.54386050E-06  0.49934403E-06  0.45175243E-06
  0.40150482E-06  0.34903361E-06  0.29478096E-06  0.23919514E-06  0.18272698E-06
  0.12582635E-06  0.68938632E-07  0.12501430E-07 -0.43058743E-07 -0.97329551E-07
 -0.14991578E-06 -0.20044210E-06 -0.24855564E-06 -0.29392827E-06 -0.33625879E-06
 -0.37527472E-06 -0.41073394E-06 -0.44242601E-06 -0.47017325E-06 -0.49383155E-06
 -0.51329085E-06 -0.52847545E-06 -0.53934393E-06 -0.54588891E-06 -0.54813645E-06
 -0.54614533E-06 -0.54000593E-06 -0.52983902E-06 -0.51579428E-06 -0.49804862E-06
 -0.47680430E-06 -0.45228697E-06 -0.42474344E-06 -0.39443945E-06 -0.36165724E-06
 -0.32669309E-06 -0.28985475E-06 -0.25145888E-06 -0.21182846E-06 -0.17129013E-06
 -0.13017161E-06 -0.88799205E-07 -0.47495228E-07 -0.65756355E-08  0.33652317E-07
  0.72892288E-07  0.11086094E-06  0.14728990E-06  0.18192753E-06  0.21454062E-06
  0.24491580E-06  0.27286083E-06  0.29820574E-06  0.32080368E-06  0.34053168E-06
  0.35729110E-06  0.37100800E-06  0.38163324E-06  0.38914236E-06  0.39353538E-06
  0.39483629E-06  0.39309245E-06  0.38837379E-06  0.38077183E-06  0.37039859E-06
  0.35738535E-06  0.34188124E-06  0.32405181E-06  0.30407740E-06  0.28215149E-06
  0.25847896E-06  0.23327429E-06  0.20675973E-06  0.17916342E-06  0.15071756E-06
  0.12165650E-06  0.92214908E-07  0.62625940E-07  0.33119493E-07  0.39204731E-08
 -0.24752841E-07 -0.52690356E-07 -0.79691630E-07 -0.10556724E-06 -0.13014002E-06
 -0.15324623E-06 -0.17473650E-06 -0.19447680E-06 -0.21234910E-06 -0.22825199E-06
 -0.24210121E-06 -0.25382987E-06 -0.26338873E-06 -0.27074616E-06 -0.27588813E-06
 -0.27881789E-06 -0.27955568E-06 -0.27813822E-06 -0.27461813E-06 -0.26906318E-06
 -0.26155550E-06 -0.25219069E-06 -0.24107676E-06 -0.22833314E-06 -0.21408945E-06
 -0.19848437E-06 -0.18166438E-06 -0.16378243E-06 -0.14499672E-06 -0.12546929E-06
 -0.10536476E-06 -0.84848967E-07 -0.64087698E-07 -0.43245381E-07 -0.22483856E-07
 -0.19611759E-08  0.18169540E-07  0.37761194E-07  0.56673721E-07  0.74775041E-07
  0.91941915E-07  0.10806073E-06  0.12302817E-06  0.13675185E-06  0.14915077E-06
  0.16015574E-06  0.16970969E-06  0.17776785E-06  0.18429788E-06  0.18927986E-06
  0.19270618E-06  0.19458142E-06  0.19492200E-06  0.19375587E-06  0.19112205E-06
  0.18707012E-06  0.18165960E-06  0.17495934E-06  0.16704677E-06  0.15800716E-06
  0.14793277E-06  0.13692204E-06  0.12507866E-06  0.11251074E-06  0.99329810E-07
  0.85649925E-07  0.71586741E-07  0.57256578E-07  0.42775511E-07  0.28258476E-07
  0.13818407E-07 -0.43459828E-09 -0.14394075E-07 -0.27957942E-07 -0.41029203E-07
 -0.53516599E-07 -0.65335199E-07 -0.76406934E-07 -0.86661064E-07 -0.96034581E-07
 -0.10447255E-06 -0.11192836E-06 -0.11836393E-06 -0.12374987E-06 -0.12806545E-06
 -0.13129869E-06 -0.13344622E-06 -0.13451315E-06 -0.13451288E-06 -0.13346680E-06
 -0.13140402E-06 -0.12836094E-06 -0.12438085E-06 -0.11951347E-06 -0.11381442E-06
 -0.10734469E-06 -0.10017005E-06 -0.92360437E-07 -0.83989375E-07 -0.75133289E-07
 -0.65870878E-07 -0.56282459E-07 -0.46449307E-07 -0.36453014E-07 -0.26374841E-07
 -0.16295103E-07 -0.62925573E-08  0.35561753E-08  0.13177164E-07  0.22499690E-07
  0.31456735E-07  0.39985431E-07  0.48027466E-07  0.55529455E-07  0.62443256E-07
  0.68726248E-07  0.74341555E-07  0.79258225E-07  0.83451356E-07  0.86902179E-07
  0.89598085E-07  0.91532608E-07  0.92705360E-07  0.93121921E-07  0.92793682E-07
  0.91737646E-07  0.89976198E-07  0.87536821E-07  0.84451795E-07  0.80757852E-07
  0.76495811E-07  0.71710181E-07  0.66448747E-07  0.60762140E-07  0.54703386E-07
  0.48327453E-07  0.41690783E-07  0.34850826E-07  0.27865575E-07  0.20793100E-07
  0.13691096E-07  0.66164403E-08 -0.37524241E-09 -0.72299873E-08 -0.13895884E-07
 -0.20323445E-07 -0.26465952E-07 -0.32279767E-07 -0.37724629E-07 -0.42763898E-07
 -0.47364791E-07 -0.51498561E-07 -0.55140660E-07 -0.58270853E-07 -0.60873307E-07
 -0.62936639E-07 -0.64453926E-07 -0.65422687E-07 -0.65844825E-07 -0.65726543E-07
 -0.65078216E-07 -0.63914246E-07 -0.62252880E-07 -0.60116002E-07 -0.57528903E-07
 -0.54520026E-07 -0.51120691E-07 -0.47364803E-07 -0.43288541E-07 -0.38930042E-07
 -0.34329065E-07 -0.29526655E-07 -0.24564802E-07 -0.19486088E-07 -0.14333352E-07
 -0.91493430E-08 -0.39763874E-08  0.11439394E-08  0.61711278E-08  0.11066037E-07
  0.15791183E-07  0.20311009E-07  0.24592136E-07  0.28603594E-07  0.32317032E-07
  0.35706899E-07  0.38750609E-07  0.41428675E-07  0.43724816E-07  0.45626042E-07
  0.47122707E-07  0.48208541E-07  0.48880650E-07  0.49139492E-07  0.48988828E-07
  0.48435644E-07  0.47490054E-07  0.46165180E-07  0.44477003E-07  0.42444198E-07
  0.40087958E-07  0.37431785E-07  0.34501279E-07  0.31323903E-07  0.27928750E-07
  0.24346285E-07  0.20608088E-07  0.16746593E-07  0.12794818E-07  0.87860946E-08
  0.47538064E-08  0.73111856E-09 -0.32492800E-08 -0.71554299E-08 -0.10956346E-07
 -0.14622251E-07 -0.18124797E-07 -0.21437274E-07 -0.24534804E-07 -0.27394513E-07
 -0.29995696E-07 -0.32319950E-07 -0.34351301E-07 -0.36076299E-07 -0.37484099E-07
 -0.38566522E-07 -0.39318084E-07 -0.39736020E-07 -0.39820271E-07 -0.39573460E-07
 -0.39000843E-07 -0.38110240E-07 -0.36911949E-07 -0.35418637E-07 -0.33645222E-07
 -0.31608726E-07 -0.29328124E-07 -0.26824177E-07 -0.24119244E-07 -0.21237099E-07
 -0.18202723E-07 -0.15042096E-07 -0.11781986E-07 -0.84497255E-08 -0.50729945E-08
 -0.16795946E-08  0.17027704E-08  0.50467127E-08  0.83253752E-08  0.11512639E-07
  0.14583326E-07  0.17513386E-07  0.20280082E-07  0.22862158E-07  0.25239997E-07
  0.27395758E-07  0.29313512E-07  0.30979344E-07  0.32381456E-07  0.33510238E-07
  0.34358333E-07  0.34920673E-07  0.35194510E-07  0.35179413E-07  0.34877262E-07
  0.34292212E-07  0.33430649E-07  0.32301121E-07  0.30914256E-07  0.29282668E-07
  0.27420840E-07  0.25345002E-07  0.23072988E-07  0.20624087E-07  0.18018882E-07
  0.15279080E-07  0.12427334E-07  0.94870581E-08  0.64822396E-08  0.34372466E-08
  0.37663374E-09 -0.26750515E-08 -0.56934624E-08 -0.86546427E-08 -0.11535213E-07
 -0.14312552E-07 -0.16964967E-07 -0.19471864E-07 -0.21813901E-07 -0.23973131E-07
 -0.25933139E-07 -0.27679161E-07 -0.29198193E-07 -0.30479082E-07 -0.31512603E-07
 -0.32291527E-07 -0.32810662E-07 -0.33066886E-07 -0.33059162E-07 -0.32788534E-07
 -0.32258113E-07 -0.31473037E-07 -0.30440428E-07 -0.29169320E-07 -0.27670585E-07
 -0.25956840E-07 -0.24042335E-07 -0.21942839E-07 -0.19675510E-07 -0.17258754E-07
 -0.14712073E-07 -0.12055914E-07 -0.93115015E-08 -0.65006691E-08 -0.36456874E-08
 -0.76908862E-09  0.21065105E-08  0.49585847E-08  0.77648759E-08  0.10503564E-07
  0.13153438E-07  0.15694053E-07  0.18105893E-07  0.20370512E-07  0.22470679E-07
   24.7554104503839      T
 Non local Part
           0           2  0.821728989630451     
   1.10994576930932      -0.486260596294223      -0.486260596294223     
 -0.529103145598907     
 Reciprocal Space Part
  0.20381285E+02  0.20292390E+02  0.20026474E+02  0.19585838E+02  0.18974302E+02
  0.18197184E+02  0.17261265E+02  0.16174748E+02  0.14947205E+02  0.13589511E+02
  0.12113770E+02  0.10533225E+02  0.88621536E+01  0.71157564E+01  0.53100261E+01
  0.34616068E+01  0.15876389E+01 -0.29440640E+00 -0.21669041E+01 -0.40122611E+01
 -0.58131086E+01 -0.75524998E+01 -0.92141095E+01 -0.10782433E+02 -0.12242979E+02
 -0.13582462E+02 -0.14788974E+02 -0.15852149E+02 -0.16763309E+02 -0.17515591E+02
 -0.18104044E+02 -0.18525706E+02 -0.18779652E+02 -0.18867009E+02 -0.18790942E+02
 -0.18556608E+02 -0.18171078E+02 -0.17643226E+02 -0.16983594E+02 -0.16204220E+02
 -0.15318454E+02 -0.14340736E+02 -0.13286373E+02 -0.12171288E+02 -0.11011770E+02
 -0.98242107E+01 -0.86248488E+01 -0.74295160E+01 -0.62533928E+01 -0.51107805E+01
 -0.40148916E+01 -0.29776633E+01 -0.20095979E+01 -0.11196320E+01 -0.31503793E+00
  0.39864201E+00  0.10176272E+01  0.15398963E+01  0.19651516E+01  0.22947515E+01
  0.25316127E+01  0.26800860E+01  0.27458073E+01  0.27355296E+01  0.26569378E+01
  0.25184528E+01  0.23290282E+01  0.20979441E+01  0.18346040E+01  0.15483372E+01
  0.12482123E+01  0.94286456E+00  0.64034147E+00  0.34796826E+00  0.72236220E-01
 -0.18128482E+00 -0.40800876E+00 -0.60436998E+00 -0.76783477E+00 -0.89688847E+00
 -0.99099957E+00 -0.10505629E+01 -0.10768241E+01 -0.10717884E+01 -0.10381164E+01
 -0.97901031E+00 -0.89809393E+00 -0.79928944E+00 -0.68669472E+00 -0.56446391E+00
 -0.43669421E+00 -0.30732149E+00 -0.18002693E+00 -0.58156347E-01  0.55346119E-01
  0.15798932E+00  0.24777078E+00  0.32319670E+00  0.38328680E+00  0.42756467E+00
 Real Space Part
 -0.32887890E+03 -0.32860422E+03 -0.32778103E+03 -0.32641186E+03 -0.32450097E+03
 -0.32205424E+03 -0.31907921E+03 -0.31558499E+03 -0.31158226E+03 -0.30708318E+03
 -0.30210134E+03 -0.29665171E+03 -0.29075055E+03 -0.28441534E+03 -0.27766469E+03
 -0.27051830E+03 -0.26299682E+03 -0.25512178E+03 -0.24691556E+03 -0.23840121E+03
 -0.22960243E+03 -0.22054350E+03 -0.21124912E+03 -0.20174443E+03 -0.19205486E+03
 -0.18220610E+03 -0.17222400E+03 -0.16213457E+03 -0.15196382E+03 -0.14173780E+03
 -0.13148250E+03 -0.12122382E+03 -0.11098750E+03 -0.10079911E+03 -0.90684014E+02
 -0.80667306E+02 -0.70773801E+02 -0.61027997E+02 -0.51454046E+02 -0.42075723E+02
 -0.32916394E+02 -0.23998991E+02 -0.15345971E+02 -0.69792858E+01  0.10796561E+01
  0.88100341E+01  0.16191660E+02  0.23205028E+02  0.29831371E+02  0.36052721E+02
  0.41851978E+02  0.47212976E+02  0.52120567E+02  0.56560699E+02  0.60520506E+02
  0.63988398E+02  0.66954158E+02  0.69409038E+02  0.71345860E+02  0.72759112E+02
  0.73645048E+02  0.74001782E+02  0.73829375E+02  0.73129917E+02  0.71907603E+02
  0.70168789E+02  0.67922040E+02  0.65178166E+02  0.61950230E+02  0.58253544E+02
  0.54105643E+02  0.49526233E+02  0.44537121E+02  0.39162102E+02  0.33426781E+02
  0.27358106E+02  0.20988078E+02  0.14403808E+02  0.78135515E+01  0.54828021E+01
  0.30319876E+01  0.73903934E+00 -0.13781338E+01 -0.32966046E+01 -0.49906577E+01
 -0.64364895E+01 -0.76126001E+01 -0.84998240E+01 -0.90814839E+01 -0.93434176E+01
 -0.92740757E+01 -0.88646055E+01 -0.81086220E+01 -0.70024146E+01 -0.55488382E+01
 -0.37308263E+01 -0.15372463E+01  0.15876904E+00 -0.23537974E-01  0.00000000E+00
 Reciprocal Space Part
  0.13438082E+02  0.13371799E+02  0.13173527E+02  0.12844992E+02  0.12389061E+02
  0.11809723E+02  0.11112073E+02  0.10302273E+02  0.93875223E+01  0.83760049E+01
  0.72768379E+01  0.61000053E+01  0.48562832E+01  0.35571548E+01  0.22147146E+01
  0.84156251E+00 -0.54931223E+00 -0.19446569E+01 -0.33310895E+01 -0.46952405E+01
 -0.60239006E+01 -0.73041728E+01 -0.85236267E+01 -0.96704521E+01 -0.10733611E+02
 -0.11702984E+02 -0.12569510E+02 -0.13325309E+02 -0.13963805E+02 -0.14479818E+02
 -0.14869647E+02 -0.15131130E+02 -0.15263684E+02 -0.15268316E+02 -0.15147617E+02
 -0.14905722E+02 -0.14548255E+02 -0.14082243E+02 -0.13516007E+02 -0.12859031E+02
 -0.12121816E+02 -0.11315711E+02 -0.10452729E+02 -0.95453610E+01 -0.86063686E+01
 -0.76485856E+01 -0.66847120E+01 -0.57271153E+01 -0.47876388E+01 -0.38774215E+01
 -0.30067335E+01 -0.21848295E+01 -0.14198232E+01 -0.71858500E+00 -0.86665233E-01
  0.47175692E+00  0.95389708E+00  0.13583625E+01  0.16851226E+01  0.19354534E+01
  0.21118597E+01  0.22179742E+01  0.22584388E+01  0.22387694E+01  0.21652085E+01
  0.20445684E+01  0.18840693E+01  0.16911747E+01  0.14734297E+01  0.12383042E+01
  0.99304450E+00  0.74453637E+00  0.49918298E+00  0.26279861E+00  0.40520759E-01
 -0.16325832E+00 -0.34493986E+00 -0.50174643E+00 -0.63172949E+00 -0.73375760E+00
 -0.80748615E+00 -0.85331054E+00 -0.87230447E+00 -0.86614562E+00 -0.83703131E+00
 -0.78758645E+00 -0.72076673E+00 -0.63975949E+00 -0.54788503E+00 -0.44850080E+00
 -0.34491069E+00 -0.24028156E+00 -0.13756876E+00 -0.39451932E-01  0.51717551E-01
  0.13395703E+00  0.20568037E+00  0.26571322E+00  0.31329598E+00  0.34807519E+00
 Real Space Part
 -0.26440140E+03 -0.26419157E+03 -0.26356268E+03 -0.26251653E+03 -0.26105610E+03
 -0.25918557E+03 -0.25691026E+03 -0.25423661E+03 -0.25117220E+03 -0.24772565E+03
 -0.24390660E+03 -0.23972571E+03 -0.23519457E+03 -0.23032565E+03 -0.22513229E+03
 -0.21962860E+03 -0.21382944E+03 -0.20775035E+03 -0.20140750E+03 -0.19481764E+03
 -0.18799804E+03 -0.18096643E+03 -0.17374096E+03 -0.16634014E+03 -0.15878281E+03
 -0.15108808E+03 -0.14327527E+03 -0.13536391E+03 -0.12737366E+03 -0.11932429E+03
 -0.11123565E+03 -0.10312763E+03 -0.95020131E+02 -0.86933045E+02 -0.78886210E+02
 -0.70899396E+02 -0.62992277E+02 -0.55184404E+02 -0.47495180E+02 -0.39943835E+02
 -0.32549398E+02 -0.25330667E+02 -0.18306177E+02 -0.11494171E+02 -0.49125584E+01
  0.14211241E+01  0.74897543E+01  0.13276675E+02  0.18765745E+02  0.23941399E+02
  0.28788707E+02  0.33293442E+02  0.37442151E+02  0.41222235E+02  0.44622021E+02
  0.47630853E+02  0.50239175E+02  0.52438618E+02  0.54222093E+02  0.55583874E+02
  0.56519692E+02  0.57026816E+02  0.57104132E+02  0.56752220E+02  0.55973417E+02
  0.54771872E+02  0.53153594E+02  0.51126479E+02  0.48700329E+02  0.45886846E+02
  0.42699620E+02  0.39154083E+02  0.35267457E+02  0.31058667E+02  0.26548187E+02
  0.21757674E+02  0.16712921E+02  0.11483820E+02  0.62370447E+01  0.43817603E+01
  0.24259588E+01  0.59199765E+00 -0.11051557E+01 -0.26464613E+01 -0.40106010E+01
 -0.51777428E+01 -0.61298692E+01 -0.68508148E+01 -0.73264031E+01 -0.75444804E+01
 -0.74950057E+01 -0.71701288E+01 -0.65640147E+01 -0.56730193E+01 -0.44988594E+01
 -0.30270969E+01 -0.12481544E+01  0.12893219E+00 -0.19114573E-01  0.00000000E+00
 Non local Part
           1           2  0.821728989630451     
   6.12884221516646       -10.2499971659541       -10.2499971659541     
   16.6355590099336     
 Reciprocal Space Part
  0.00000000E+00  0.77436640E+00  0.15346617E+01  0.22670851E+01  0.29583701E+01
  0.35960384E+01  0.41686362E+01  0.46659502E+01  0.50791971E+01  0.54011839E+01
  0.56264349E+01  0.57512844E+01  0.57739311E+01  0.56944559E+01  0.55148009E+01
  0.52387121E+01  0.48716457E+01  0.44206422E+01  0.38941691E+01  0.33019384E+01
  0.26547007E+01  0.19640223E+01  0.12420490E+01  0.50126270E+00 -0.24576442E+00
 -0.98661314E+00 -0.17092523E+01 -0.24022608E+01 -0.30550335E+01 -0.36579643E+01
 -0.42026060E+01 -0.46818017E+01 -0.50897875E+01 -0.54222628E+01 -0.56764298E+01
 -0.58510005E+01 -0.59461725E+01 -0.59635752E+01 -0.59061879E+01 -0.57782322E+01
 -0.55850430E+01 -0.53329202E+01 -0.50289651E+01 -0.46809069E+01 -0.42969214E+01
 -0.38854477E+01 -0.34550068E+01 -0.30140249E+01 -0.25706666E+01 -0.21326809E+01
 -0.17072622E+01 -0.13009300E+01 -0.91942838E+00 -0.56764716E+00 -0.24956582E+00
  0.31780148E-01  0.27430995E+00  0.47688647E+00  0.63928453E+00  0.76214012E+00
  0.84688279E+00  0.89565341E+00  0.91121006E+00  0.89682480E+00  0.85617430E+00
  0.79322715E+00  0.71213089E+00  0.61710144E+00  0.51231747E+00  0.40182219E+00
  0.28943449E+00  0.17867113E+00  0.72681469E-01 -0.25804441E-01 -0.11451380E+00
 -0.19165476E+00 -0.25592621E+00 -0.30651405E+00 -0.34307498E+00 -0.36570880E+00
 -0.37492076E+00 -0.37157550E+00 -0.35684428E+00 -0.33214742E+00 -0.29909376E+00
 -0.25941894E+00 -0.21492443E+00 -0.16741874E+00 -0.11866261E+00 -0.70319230E-01
 -0.23910784E-01  0.19217922E-01  0.57928068E-01  0.91307335E-01  0.11868221E+00
  0.13962223E+00  0.15393648E+00  0.16166301E+00  0.16305184E+00  0.15854243E+00
 Real Space Part
  0.00000000E+00 -0.26861587E+01 -0.53613903E+01 -0.80148402E+01 -0.10635798E+02
 -0.13213766E+02 -0.15738531E+02 -0.18200219E+02 -0.20589364E+02 -0.22896957E+02
 -0.25114496E+02 -0.27234029E+02 -0.29248190E+02 -0.31150230E+02 -0.32934040E+02
 -0.34594167E+02 -0.36125822E+02 -0.37524886E+02 -0.38787907E+02 -0.39912086E+02
 -0.40895272E+02 -0.41735933E+02 -0.42433142E+02 -0.42986543E+02 -0.43396327E+02
 -0.43663199E+02 -0.43788343E+02 -0.43773394E+02 -0.43620401E+02 -0.43331793E+02
 -0.42910354E+02 -0.42359189E+02 -0.41681699E+02 -0.40881559E+02 -0.39962695E+02
 -0.38929269E+02 -0.37785663E+02 -0.36536476E+02 -0.35186510E+02 -0.33740773E+02
 -0.32204481E+02 -0.30583059E+02 -0.28882149E+02 -0.27107621E+02 -0.25265584E+02
 -0.23362394E+02 -0.21404672E+02 -0.19399314E+02 -0.17353500E+02 -0.15274705E+02
 -0.13170703E+02 -0.11049575E+02 -0.89196991E+01 -0.67897505E+01 -0.46686839E+01
 -0.25657160E+01 -0.49029773E+00  0.15479207E+01  0.35391324E+01  0.54734250E+01
  0.73408410E+01  0.91314457E+01  0.10835404E+02  0.12443065E+02  0.13945052E+02
  0.15332364E+02  0.16596475E+02  0.17729443E+02  0.18724020E+02  0.19573765E+02
  0.20273153E+02  0.20817682E+02  0.21203983E+02  0.21429912E+02  0.21494641E+02
  0.21398744E+02  0.21144259E+02  0.20734743E+02  0.20175319E+02  0.19472688E+02
  0.18635147E+02  0.17672569E+02  0.16596377E+02  0.15419495E+02  0.14156276E+02
  0.12822427E+02  0.11434894E+02  0.10011759E+02  0.85720928E+01  0.71358233E+01
  0.57235723E+01  0.43564978E+01  0.30560718E+01  0.18439250E+01  0.74359368E+00
 -0.23216957E+00 -0.10693025E+01 -0.13318153E+01 -0.15899388E+00  0.00000000E+00
 Reciprocal Space Part
  0.00000000E+00  0.43664812E+00  0.86378376E+00  0.12720859E+01  0.16526124E+01
  0.19969794E+01  0.22975284E+01  0.25474788E+01  0.27410606E+01  0.28736271E+01
  0.29417424E+01  0.29432447E+01  0.28772824E+01  0.27443226E+01  0.25461335E+01
  0.22857388E+01  0.19673476E+01  0.15962604E+01  0.11787531E+01  0.72194300E+00
  0.23363879E+00 -0.27782202E+00 -0.80374401E+00 -0.13352497E+01 -0.18634569E+01
 -0.23796523E+01 -0.28754602E+01 -0.33429999E+01 -0.37750310E+01 -0.41650818E+01
 -0.45075604E+01 -0.47978443E+01 -0.50323488E+01 -0.52085717E+01 -0.53251155E+01
 -0.53816851E+01 -0.53790642E+01 -0.53190682E+01 -0.52044788E+01 -0.50389588E+01
 -0.48269525E+01 -0.45735716E+01 -0.42844719E+01 -0.39657215E+01 -0.36236657E+01
 -0.32647906E+01 -0.28955881E+01 -0.25224260E+01 -0.21514264E+01 -0.17883528E+01
 -0.14385104E+01 -0.11066600E+01 -0.79694723E+00 -0.51284824E+00 -0.25713256E+00
 -0.31842906E-01  0.16170806E+00  0.32292457E+00  0.45189934E+00  0.54937117E+00
  0.61667011E+00  0.65565217E+00  0.66862536E+00  0.65826944E+00  0.62755146E+00
  0.57963926E+00  0.51781530E+00  0.44539266E+00  0.36563528E+00  0.28168415E+00
  0.19649092E+00  0.11276023E+00  0.32901692E-01 -0.41007738E-01 -0.10725069E+00
 -0.16448544E+00 -0.21175134E+00 -0.24846406E+00 -0.27440135E+00 -0.28968024E+00
 -0.29472676E+00 -0.29023943E+00 -0.27714787E+00 -0.25656791E+00 -0.22975469E+00
 -0.19805500E+00 -0.16286045E+00 -0.12556247E+00 -0.87510542E-01 -0.49974388E-01
 -0.14111160E-01  0.19061861E-01  0.48688544E-01  0.74088950E-01  0.94768046E-01
  0.11041825E+00  0.12091607E+00  0.12631334E+00  0.12682358E+00  0.12280423E+00
 Real Space Part
  0.00000000E+00 -0.26775561E+01 -0.53440412E+01 -0.79884613E+01 -0.10599975E+02
 -0.13167969E+02 -0.15682128E+02 -0.18132501E+02 -0.20509569E+02 -0.22804299E+02
 -0.25008198E+02 -0.27113359E+02 -0.29112498E+02 -0.30998992E+02 -0.32766898E+02
 -0.34410973E+02 -0.35926688E+02 -0.37310225E+02 -0.38558482E+02 -0.39669056E+02
 -0.40640234E+02 -0.41470967E+02 -0.42160851E+02 -0.42710088E+02 -0.43119463E+02
 -0.43390303E+02 -0.43524437E+02 -0.43524164E+02 -0.43392208E+02 -0.43131679E+02
 -0.42746038E+02 -0.42239057E+02 -0.41614783E+02 -0.40877511E+02 -0.40031746E+02
 -0.39082185E+02 -0.38033686E+02 -0.36891257E+02 -0.35660033E+02 -0.34345270E+02
 -0.32952332E+02 -0.31486691E+02 -0.29953921E+02 -0.28359703E+02 -0.26709829E+02
 -0.25010203E+02 -0.23266857E+02 -0.21485949E+02 -0.19673781E+02 -0.17836800E+02
 -0.15981609E+02 -0.14114970E+02 -0.12243806E+02 -0.10375202E+02 -0.85163983E+01
 -0.66747816E+01 -0.48578706E+01 -0.30732953E+01 -0.13287703E+01  0.36793768E+00
  0.20090494E+01  0.35868195E+01  0.50935893E+01  0.65218462E+01  0.78642888E+01
  0.91138978E+01  0.10264012E+02  0.11308408E+02  0.12241381E+02  0.13057833E+02
  0.13753354E+02  0.14324307E+02  0.14767913E+02  0.15082323E+02  0.15266695E+02
  0.15321260E+02  0.15247374E+02  0.15047570E+02  0.14725596E+02  0.14286432E+02
  0.13736307E+02  0.13082696E+02  0.12334297E+02  0.11501009E+02  0.10593875E+02
  0.96250310E+01  0.86076242E+01  0.75557342E+01  0.64842647E+01  0.54088423E+01
  0.43456935E+01  0.33115225E+01  0.23233386E+01  0.13983350E+01  0.55525537E+00
 -0.19553803E+00 -0.84260286E+00 -0.10442207E+01 -0.12463972E+00  0.00000000E+00
 PAW radial sets
         377  0.721520152002726     
(5E20.12)                                
 augmentation charges (non sperical)
 -0.157752210133E+00  0.204307985990E+00  0.447401445179E-01 -0.525030860708E-01  0.204307985990E+00
 -0.264895400929E+00 -0.572873051840E-01  0.674773332044E-01  0.447401445179E-01 -0.572873051840E-01
  0.206642371551E+00 -0.289235099519E+00 -0.525030860708E-01  0.674773332044E-01 -0.289235099519E+00
  0.406654885716E+00
 uccopancies in atom
  0.200000000006E+01  0.000000000000E+00  0.000000000000E+00  0.000000000000E+00  0.000000000000E+00
  0.000000000000E+00  0.000000000000E+00  0.000000000000E+00  0.000000000000E+00  0.000000000000E+00
  0.133333333302E+01  0.000000000000E+00  0.000000000000E+00  0.000000000000E+00  0.000000000000E+00
  0.000000000000E+00
 grid
  0.292861757568E-04  0.302384891324E-04  0.312217693632E-04  0.322370234141E-04  0.332852909940E-04
  0.343676456204E-04  0.354851957192E-04  0.366390857593E-04  0.378304974248E-04  0.390606508255E-04
  0.403308057460E-04  0.416422629358E-04  0.429963654417E-04  0.443944999831E-04  0.458380983718E-04
  0.473286389788E-04  0.488676482478E-04  0.504567022590E-04  0.520974283424E-04  0.537915067449E-04
  0.555406723508E-04  0.573467164586E-04  0.592114886153E-04  0.611368985105E-04  0.631249179321E-04
  0.651775827859E-04  0.672969951799E-04  0.694853255777E-04  0.717448150208E-04  0.740777774238E-04
  0.764866019442E-04  0.789737554287E-04  0.815417849398E-04  0.841933203642E-04  0.869310771058E-04
  0.897578588667E-04  0.926765605186E-04  0.956901710669E-04  0.988017767123E-04  0.102014564011E-03
  0.105331823137E-03  0.108756951255E-03  0.112293455994E-03  0.115944959045E-03  0.119715199866E-03
  0.123608039513E-03  0.127627464593E-03  0.131777591350E-03  0.136062669876E-03  0.140487088466E-03
  0.145055378110E-03  0.149772217137E-03  0.154642436003E-03  0.159671022236E-03  0.164863125548E-03
  0.170224063108E-03  0.175759324983E-03  0.181474579766E-03  0.187375680376E-03  0.193468670057E-03
  0.199759788562E-03  0.206255478546E-03  0.212962392164E-03  0.219887397881E-03  0.227037587508E-03
  0.234420283464E-03  0.242043046275E-03  0.249913682317E-03  0.258040251807E-03  0.266431077064E-03
  0.275094751026E-03  0.284040146052E-03  0.293276423008E-03  0.302813040649E-03  0.312659765305E-03
  0.322826680882E-03  0.333324199190E-03  0.344163070606E-03  0.355354395080E-03  0.366909633507E-03
  0.378840619461E-03  0.391159571315E-03  0.403879104750E-03  0.417012245681E-03  0.430572443592E-03
  0.444573585311E-03  0.459030009230E-03  0.473956519990E-03  0.489368403644E-03  0.505281443305E-03
  0.521711935319E-03  0.538676705943E-03  0.556193128586E-03  0.574279141596E-03  0.592953266629E-03
  0.612234627622E-03  0.632142970374E-03  0.652698682767E-03  0.673922815646E-03  0.695837104379E-03
  0.718463991113E-03  0.741826647755E-03  0.765948999709E-03  0.790855750370E-03  0.816572406429E-03
  0.843125303987E-03  0.870541635532E-03  0.898849477784E-03  0.928077820446E-03  0.958256595896E-03
  0.989416709837E-03  0.102159007295E-02  0.105480963356E-02  0.108910941142E-02  0.112452453248E-02
  0.116109126493E-02  0.119884705630E-02  0.123783057181E-02  0.127808173400E-02  0.131964176357E-02
  0.136255322161E-02  0.140686005323E-02  0.145260763247E-02  0.149984280887E-02  0.154861395536E-02
  0.159897101787E-02  0.165096556643E-02  0.170465084799E-02  0.176008184098E-02  0.181731531158E-02
  0.187640987187E-02  0.193742603983E-02  0.200042630136E-02  0.206547517423E-02  0.213263927416E-02
  0.220198738308E-02  0.227359051949E-02  0.234752201127E-02  0.242385757072E-02  0.250267537214E-02
  0.258405613183E-02  0.266808319080E-02  0.275484260011E-02  0.284442320898E-02  0.293691675577E-02
  0.303241796195E-02  0.313102462912E-02  0.323283773910E-02  0.333796155744E-02  0.344650374009E-02
  0.355857544374E-02  0.367429143961E-02  0.379377023099E-02  0.391713417460E-02  0.404450960591E-02
  0.417602696847E-02  0.431182094758E-02  0.445203060811E-02  0.459679953703E-02  0.474627599036E-02
  0.490061304506E-02  0.505996875575E-02  0.522450631661E-02  0.539439422848E-02  0.556980647142E-02
  0.575092268290E-02  0.593792834175E-02  0.613101495811E-02  0.633038026953E-02  0.653622844353E-02
  0.674877028662E-02  0.696822346022E-02  0.719481270355E-02  0.742877006381E-02  0.767033513377E-02
  0.791975529717E-02  0.817728598207E-02  0.844319092237E-02  0.871774242798E-02  0.900122166363E-02
  0.929391893683E-02  0.959613399516E-02  0.990817633326E-02  0.102303655097E-01  0.105630314745E-01
  0.109065149065E-01  0.112611675628E-01  0.116273526388E-01  0.120054451399E-01  0.123958322659E-01
  0.127989138074E-01  0.132151025550E-01  0.136448247225E-01  0.140885203828E-01  0.145466439191E-01
  0.150196644899E-01  0.155080665096E-01  0.160123501446E-01  0.165330318254E-01  0.170706447755E-01
  0.176257395575E-01  0.181988846371E-01  0.187906669648E-01  0.194016925775E-01  0.200325872188E-01
  0.206839969800E-01  0.213565889615E-01  0.220510519564E-01  0.227680971554E-01  0.235084588754E-01
  0.242728953116E-01  0.250621893137E-01  0.258771491876E-01  0.267186095236E-01  0.275874320505E-01
  0.284845065186E-01  0.294107516104E-01  0.303671158820E-01  0.313545787337E-01  0.323741514141E-01
  0.334268780544E-01  0.345138367389E-01  0.356361406081E-01  0.367949389994E-01  0.379914186235E-01
  0.392268047802E-01  0.405023626127E-01  0.418193984038E-01  0.431792609133E-01  0.445833427591E-01
  0.460330818438E-01  0.475299628269E-01  0.490755186453E-01  0.506713320832E-01  0.523190373930E-01
  0.540203219690E-01  0.557769280752E-01  0.575906546298E-01  0.594633590472E-01  0.613969591405E-01
  0.633934350851E-01  0.654548314468E-01  0.675832592756E-01  0.697808982676E-01  0.720499989972E-01
  0.743928852218E-01  0.768119562617E-01  0.793096894569E-01  0.818886427046E-01  0.845514570782E-01
  0.873008595323E-01  0.901396656953E-01  0.930707827527E-01  0.960972124246E-01  0.992220540394E-01
  0.102448507708E+00  0.105779877601E+00  0.109219575332E+00  0.112771123452E+00  0.116438159057E+00
  0.120224437512E+00  0.124133836297E+00  0.128170358977E+00  0.132338139305E+00  0.136641445452E+00
  0.141084684380E+00  0.145672406352E+00  0.150409309599E+00  0.155300245122E+00  0.160350221666E+00
  0.165564410850E+00  0.170948152458E+00  0.176506959912E+00  0.182246525918E+00  0.188172728291E+00
  0.194291635982E+00  0.200609515285E+00  0.207132836263E+00  0.213868279365E+00  0.220822742274E+00
  0.228003346967E+00  0.235417447012E+00  0.243072635094E+00  0.250976750795E+00  0.259137888621E+00
  0.267564406289E+00  0.276264933290E+00  0.285248379723E+00  0.294523945424E+00  0.304101129382E+00
  0.313989739470E+00  0.324199902489E+00  0.334742074538E+00  0.345627051723E+00  0.356865981211E+00
  0.368470372648E+00  0.380452109945E+00  0.392823463449E+00  0.405597102506E+00  0.418786108438E+00
  0.432403987941E+00  0.446464686913E+00  0.460982604738E+00  0.475972609033E+00  0.491450050872E+00
  0.507430780509E+00  0.523931163606E+00  0.540968097998E+00  0.558559030995E+00  0.576721977248E+00
  0.595475537203E+00  0.614838916143E+00  0.634831943861E+00  0.655475094963E+00  0.676789509841E+00
  0.698797016317E+00  0.721520152003E+00  0.744982187373E+00  0.769207149603E+00  0.794219847171E+00
  0.820045895265E+00  0.846711742015E+00  0.874244695578E+00  0.902672952104E+00  0.932025624613E+00
  0.962332772806E+00  0.993625433851E+00  0.102593565417E+01  0.105929652224E+01  0.109374220253E+01
  0.112930797040E+01  0.116603024832E+01  0.120394664310E+01  0.124309598446E+01  0.128351836473E+01
  0.132525517996E+01  0.136834917231E+01  0.141284447378E+01  0.145878665145E+01  0.150622275412E+01
  0.155520136052E+01  0.160577262901E+01  0.165798834900E+01  0.171190199393E+01  0.176756877610E+01
  0.182504570315E+01  0.188439163649E+01  0.194566735153E+01  0.200893559995E+01  0.207426117398E+01
  0.214171097271E+01  0.221135407063E+01  0.228326178835E+01  0.235750776566E+01  0.243416803694E+01
  0.251332110900E+01  0.259504804149E+01  0.267943252995E+01  0.276656099146E+01  0.285652265317E+01
  0.294940964370E+01  0.304531708744E+01  0.314434320198E+01  0.324658939873E+01  0.335216038673E+01
  0.346116427989E+01  0.357371270772E+01  0.368992092966E+01  0.380990795306E+01  0.393379665514E+01
  0.406171390874E+01  0.419379071232E+01  0.433016232405E+01  0.447096840040E+01  0.461635313908E+01
  0.476646542677E+01  0.492145899157E+01
 aepotential
  0.344621258081E+05  0.335729067623E+05  0.326607416941E+05  0.317299034284E+05  0.307848731777E+05
  0.298307969953E+05  0.288714723153E+05  0.279108476125E+05  0.269530828905E+05  0.260013700630E+05
  0.250590462996E+05  0.241289578547E+05  0.232136948866E+05  0.223155372791E+05  0.214364903046E+05
  0.205782400891E+05  0.197422067901E+05  0.189295545288E+05  0.181411896891E+05  0.173777933984E+05
  0.166398347359E+05  0.159275901007E+05  0.152411617378E+05  0.145804968173E+05  0.139454056220E+05
  0.133355789912E+05  0.127506057105E+05  0.121899870958E+05  0.116531529420E+05  0.111394731301E+05
  0.106482740668E+05  0.101788407125E+05  0.973044232850E+04  0.930231774779E+04  0.889371208115E+04
  0.850385711630E+04  0.813199778801E+04  0.777733492795E+04  0.743921558723E+04  0.711683989559E+04
  0.680951807437E+04  0.651655327432E+04  0.623731835190E+04  0.597111211607E+04  0.571736532578E+04
  0.547542866342E+04  0.524478544347E+04  0.502484749785E+04  0.481511055968E+04  0.461506537251E+04
  0.442422627572E+04  0.424215415657E+04  0.406841013856E+04  0.390257283264E+04  0.374426904131E+04
  0.359310828044E+04  0.344874589473E+04  0.331084844394E+04  0.317909235300E+04  0.305317686618E+04
  0.293281530786E+04  0.281773745240E+04  0.270768572254E+04  0.260241800036E+04  0.250169805262E+04
  0.240531038461E+04  0.231304515437E+04  0.222470753749E+04  0.214010885182E+04  0.205907320936E+04
  0.198142823906E+04  0.190703017325E+04  0.183569506453E+04  0.176732214107E+04  0.170174332510E+04
  0.163884615880E+04  0.157849476743E+04  0.152058905879E+04  0.146500411033E+04  0.141164737899E+04
  0.136040650959E+04  0.131120023169E+04  0.126392795858E+04  0.121851114520E+04  0.117486458651E+04
  0.113291359203E+04  0.109258203607E+04  0.105380277113E+04  0.101650771653E+04  0.980633491961E+03
  0.946120468820E+03  0.912909875716E+03  0.880948942471E+03  0.850183864658E+03  0.820565723827E+03
  0.792046280915E+03  0.764581639764E+03  0.738127267272E+03  0.712642842886E+03  0.688088773759E+03
  0.664427553327E+03  0.641623446003E+03  0.619641944976E+03  0.598450791497E+03  0.578018196918E+03
  0.558314609627E+03  0.539311454631E+03  0.520980962768E+03  0.503297847872E+03  0.486235826147E+03
  0.469772222245E+03  0.453883103484E+03  0.438547171708E+03  0.423742754829E+03  0.409450429586E+03
  0.395649858104E+03  0.382323304692E+03  0.369452930676E+03  0.357021152711E+03  0.345012042353E+03
  0.333409878926E+03  0.322199481670E+03  0.311366243409E+03  0.300896602770E+03  0.290776925936E+03
  0.280994462215E+03  0.271537003396E+03  0.262392473107E+03  0.253549720464E+03  0.244997624825E+03
  0.236725695980E+03  0.228723854313E+03  0.220982243515E+03  0.213491534734E+03  0.206242677104E+03
  0.199226959196E+03  0.192436005793E+03  0.185861725060E+03  0.179496332680E+03  0.173332347180E+03
  0.167362508794E+03  0.161579865604E+03  0.155977679903E+03  0.150549449447E+03  0.145288974557E+03
  0.140190119326E+03  0.135247093223E+03  0.130454356386E+03  0.125806290270E+03  0.121297777874E+03
  0.116923687812E+03  0.112679121082E+03  0.108559363991E+03  0.104559783685E+03  0.100675968060E+03
  0.969036453311E+02  0.932386213490E+02  0.896769088661E+02  0.862146040042E+02  0.828479591691E+02
  0.795732866856E+02  0.763870981432E+02  0.732859316288E+02  0.702664713805E+02  0.673255135871E+02
  0.644599156545E+02  0.616666543352E+02  0.589427852713E+02  0.562854590986E+02  0.536918917916E+02
  0.511594018487E+02  0.486853599444E+02  0.462672357667E+02  0.439025448159E+02  0.415888905624E+02
  0.393239315843E+02  0.371053921510E+02  0.349310577904E+02  0.327987741501E+02  0.307064390306E+02
  0.286520093163E+02  0.266334939285E+02  0.246489481004E+02  0.226964871294E+02  0.207742498323E+02
  0.188804622748E+02  0.170133488556E+02  0.151712071942E+02  0.133523715846E+02  0.115552044053E+02
  0.977812175990E+01  0.801957691785E+01  0.627804931623E+01  0.455206759050E+01  0.284018949892E+01
  0.114101099058E+01 -0.546842741628E+00 -0.222470268924E+01 -0.389387720072E+01 -0.555563610367E+01
 -0.721121658891E+01 -0.886182581561E+01 -0.105086379622E+02 -0.121527945082E+02 -0.137954074004E+02
 -0.154375544934E+02 -0.170802833706E+02 -0.187246098016E+02 -0.203715176356E+02 -0.220219576713E+02
 -0.236768501310E+02 -0.253370807293E+02 -0.270035038018E+02 -0.286769385363E+02 -0.303581719839E+02
 -0.320479553601E+02 -0.337470052026E+02 -0.354560028339E+02 -0.371755927213E+02 -0.389063828367E+02
 -0.406489423154E+02 -0.424038026248E+02 -0.441714547944E+02 -0.459523499226E+02 -0.477468967532E+02
 -0.495554615946E+02 -0.513783666019E+02 -0.532158884418E+02 -0.550682567053E+02 -0.569356525081E+02
 -0.588182061435E+02 -0.607159953424E+02 -0.626290426878E+02 -0.645573127298E+02 -0.665007089407E+02
 -0.684590698280E+02 -0.704321646466E+02 -0.724196883613E+02 -0.744212554992E+02 -0.764363933186E+02
 -0.784645334156E+02 -0.805050019936E+02 -0.825570085711E+02 -0.846196325137E+02 -0.866918074323E+02
 -0.887723031587E+02 -0.908597047747E+02 -0.929523888258E+02 -0.950484962866E+02 -0.971459025767E+02
 -0.992421846684E+02 -0.101334586041E+03 -0.103419980548E+03 -0.105494836937E+03 -0.107555186638E+03
 -0.109596598432E+03 -0.111614165019E+03 -0.113602507607E+03 -0.115555806471E+03 -0.117467866629E+03
 -0.119332229102E+03 -0.121142339099E+03 -0.122891782761E+03 -0.124574603743E+03 -0.126185709603E+03
 -0.127721376184E+03 -0.129179849459E+03 -0.130562037734E+03 -0.131872250035E+03 -0.133118881566E+03
 -0.134314825448E+03 -0.135477193361E+03 -0.136625660077E+03 -0.137778519010E+03 -0.138945648784E+03
 -0.140118549895E+03 -0.141259818189E+03 -0.142297364384E+03 -0.143130166847E+03 -0.143649392398E+03
 -0.143770897058E+03 -0.143466650644E+03 -0.142779438656E+03 -0.141810640105E+03 -0.140684649146E+03
 -0.139508468629E+03 -0.138347630249E+03 -0.137225672082E+03 -0.136138333488E+03 -0.135069530202E+03
 -0.134002012507E+03 -0.132922043453E+03 -0.131820226047E+03 -0.130690627012E+03 -0.129529519310E+03
 -0.128334338705E+03 -0.127103016988E+03 -0.125833658669E+03 -0.124524453829E+03 -0.123173726349E+03
 -0.121780033193E+03 -0.120342269538E+03 -0.118859752501E+03 -0.117332272995E+03 -0.115760124914E+03
 -0.114144101355E+03 -0.112485483290E+03 -0.110786005404E+03 -0.109047822227E+03 -0.107273460951E+03
 -0.105465777476E+03 -0.103627905378E+03 -0.101763207742E+03 -0.998752258631E+02 -0.979676298105E+02
 -0.960441691600E+02 -0.941086225348E+02 -0.921647516109E+02 -0.902162521482E+02 -0.882667076467E+02
 -0.863195482087E+02 -0.843780048830E+02 -0.824450744932E+02 -0.805234851994E+02 -0.786156712732E+02
 -0.767237567928E+02 -0.748495516535E+02 -0.729945622392E+02 -0.711600178293E+02 -0.693469132041E+02
 -0.675560653957E+02 -0.657881807429E+02 -0.640439269470E+02 -0.623240028446E+02 -0.606291995903E+02
 -0.589604468790E+02 -0.573188399977E+02 -0.557056454730E+02 -0.541222852492E+02 -0.525703011285E+02
 -0.510513025120E+02 -0.495669012821E+02 -0.481186381574E+02 -0.467079052121E+02 -0.453358696671E+02
 -0.440034044777E+02 -0.427110315137E+02 -0.414588828986E+02 -0.402466850424E+02 -0.390737679271E+02
 -0.379390994445E+02 -0.368413415363E+02 -0.357789222033E+02 -0.347501157601E+02 -0.337531233439E+02
 -0.327861466199E+02 -0.318474495005E+02 -0.309354049914E+02 -0.300485264856E+02 -0.291854845899E+02
 -0.283451117204E+02 -0.275263972501E+02 -0.267284760438E+02 -0.259506129403E+02 -0.251921852815E+02
 -0.244526650785E+02 -0.237316019165E+02 -0.230286072881E+02 -0.223433407176E+02 -0.216754978054E+02
 -0.210248001598E+02 -0.203909870876E+02 -0.197738088642E+02 -0.191730213824E+02 -0.185883819864E+02
 -0.180196463043E+02 -0.174665659194E+02
 core charge-density
  0.625549834773E-05  0.666800503046E-05  0.710770693649E-05  0.757639627830E-05  0.807598331150E-05
  0.860850410282E-05  0.917612880907E-05  0.978117049962E-05  0.104260945586E-04  0.111135287054E-04
  0.118462736723E-04  0.126273145842E-04  0.134598330854E-04  0.143472202623E-04  0.152930904146E-04
  0.163012957304E-04  0.173759419244E-04  0.185214049015E-04  0.197423485145E-04  0.210437434859E-04
  0.224308875702E-04  0.239094270387E-04  0.254853795725E-04  0.271651586550E-04  0.289555995636E-04
  0.308639870632E-04  0.328980849139E-04  0.350661673100E-04  0.373770523778E-04  0.398401378645E-04
  0.424654391625E-04  0.452636298208E-04  0.482460847049E-04  0.514249259776E-04  0.548130720860E-04
  0.584242899460E-04  0.622732505377E-04  0.663755881274E-04  0.707479633574E-04  0.754081304474E-04
  0.803750087831E-04  0.856687591678E-04  0.913108650448E-04  0.973242190074E-04  0.103733214946E-03
  0.110563846188E-03  0.117843810020E-03  0.125602619014E-03  0.133871719579E-03  0.142684618218E-03
  0.152077015982E-03  0.162086951644E-03  0.172754954166E-03  0.184124205036E-03  0.196240711132E-03
  0.209153488770E-03  0.222914759660E-03  0.237580159532E-03  0.253208960236E-03  0.269864306193E-03
  0.287613466085E-03  0.306528100788E-03  0.326684548546E-03  0.348164128521E-03  0.371053463844E-03
  0.395444825445E-03  0.421436497940E-03  0.449133168998E-03  0.478646343650E-03  0.510094785131E-03
  0.543604983902E-03  0.579311656655E-03  0.617358277124E-03  0.657897640797E-03  0.701092465490E-03
  0.747116030214E-03  0.796152854521E-03  0.848399421024E-03  0.904064943601E-03  0.963372184282E-03
  0.102655832163E-02  0.109387587398E-02  0.116559368076E-02  0.124199794551E-02  0.132339334439E-02
  0.141010420411E-02  0.150247575353E-02  0.160087545343E-02  0.170569440904E-02  0.181734887053E-02
  0.193628182645E-02  0.206296469593E-02  0.219789912541E-02  0.234161889602E-02  0.249469194832E-02
  0.265772253114E-02  0.283135348191E-02  0.301626864601E-02  0.321319544336E-02  0.342290759058E-02
  0.364622798782E-02  0.388403177946E-02  0.413724959877E-02  0.440687100673E-02  0.469394813594E-02
  0.499959955108E-02  0.532501433790E-02  0.567145643310E-02  0.604026920857E-02  0.643288032324E-02
  0.685080685741E-02  0.729566074403E-02  0.776915451294E-02  0.827310736395E-02  0.880945158622E-02
  0.938023934073E-02  0.998764982515E-02  0.106339968389E-01  0.113217367688E-01  0.120534770154E-01
  0.128319848807E-01  0.136601969386E-01  0.145412289107E-01  0.154783860700E-01  0.164751741952E-01
  0.175353110992E-01  0.186627387576E-01  0.198616360585E-01  0.211364322012E-01  0.224918207665E-01
  0.239327744849E-01  0.254645607262E-01  0.270927577354E-01  0.288232716393E-01  0.306623542463E-01
  0.326166216629E-01  0.346930737474E-01  0.368991144208E-01  0.392425728547E-01  0.417317255497E-01
  0.443753193214E-01  0.471825952013E-01  0.501633132638E-01  0.533277783799E-01  0.566868668986E-01
  0.602520542493E-01  0.640354434545E-01  0.680497945329E-01  0.723085547678E-01  0.768258898099E-01
  0.816167155651E-01  0.866967308197E-01  0.920824505353E-01  0.977912397351E-01  0.103841347892E+00
  0.110251943712E+00  0.117043150181E+00  0.124236079746E+00  0.131852869454E+00  0.139916715877E+00
  0.148451909595E+00  0.157483869030E+00  0.167039173333E+00  0.177145594063E+00  0.187832125314E+00
  0.199129011925E+00  0.211067775390E+00  0.223681237018E+00  0.237003537861E+00  0.251070154895E+00
  0.265917912862E+00  0.281584991174E+00  0.298110925183E+00  0.315536601090E+00  0.333904243727E+00
  0.353257396336E+00  0.373640891470E+00  0.395100812028E+00  0.417684441421E+00  0.441440201756E+00
  0.466417578917E+00  0.492667033311E+00  0.520239895026E+00  0.549188242087E+00  0.579564760420E+00
  0.611422584151E+00  0.644815114720E+00  0.679795817435E+00  0.716417993867E+00  0.754734528645E+00
  0.794797609172E+00  0.836658416756E+00  0.880366787762E+00  0.925970843486E+00  0.973516587417E+00
  0.102304746886E+01  0.107460391186E+01  0.112822280879E+01  0.118393697791E+01  0.124177458474E+01
  0.130175852731E+01  0.136390578560E+01  0.142822673623E+01  0.149472443356E+01  0.156339385909E+01
  0.163422114178E+01  0.170718275227E+01  0.178224467496E+01  0.185936156253E+01  0.193847587857E+01
  0.201951703446E+01  0.210240052821E+01  0.218702709338E+01  0.227328186773E+01  0.236103359206E+01
  0.245013385084E+01  0.254041636756E+01  0.263169636840E+01  0.272377002939E+01  0.281641402277E+01
  0.290938517951E+01  0.300242028543E+01  0.309523602946E+01  0.318752912236E+01  0.327897660526E+01
  0.336923636659E+01  0.345794788610E+01  0.354473322391E+01  0.362919827117E+01  0.371093427773E+01
  0.378951966995E+01  0.386452216946E+01  0.393550122044E+01  0.400201072951E+01  0.406360211798E+01
  0.411982768169E+01  0.417024424784E+01  0.421441711293E+01  0.425192423895E+01  0.428236067847E+01
  0.430534319207E+01  0.432051501388E+01  0.432755071371E+01  0.432616109652E+01  0.431609807282E+01
  0.429715942646E+01  0.426919340030E+01  0.423210301446E+01  0.418585002797E+01  0.413045845132E+01
  0.406601751648E+01  0.399268401161E+01  0.391068389027E+01  0.382031307065E+01  0.372193734783E+01
  0.361599135309E+01  0.350297650770E+01  0.338345793507E+01  0.325806031466E+01  0.312746268272E+01
  0.299239220956E+01  0.285361700894E+01  0.271193806267E+01  0.256818037128E+01  0.242318346850E+01
  0.227779146284E+01  0.213284279210E+01  0.198915989043E+01  0.184753899016E+01  0.170874026947E+01
  0.157347856300E+01  0.144241483035E+01  0.131614854561E+01  0.119521112339E+01  0.108006043580E+01
  0.971076416602E+00  0.868557720278E+00  0.772719446284E+00  0.683692073177E+00  0.601521935215E+00
  0.526173696225E+00  0.457535189698E+00  0.395424650817E+00  0.339599878315E+00  0.289768462786E+00
  0.245598123336E+00  0.206726459547E+00  0.172769863026E+00  0.143331658906E+00  0.118009628923E+00
  0.964029804771E-01  0.781187116277E-01  0.627772597360E-01  0.500173177769E-01  0.394997340760E-01
  0.309104559082E-01  0.239625220484E-01  0.183971483157E-01  0.139839815670E-01  0.105206212258E-01
  0.783152351440E-02  0.576641246844E-02  0.419832404102E-02  0.302140581083E-02  0.214858586519E-02
  0.150921142073E-02  0.104674189060E-02  0.716563679615E-03  0.483976210018E-03  0.322381630461E-03
  0.211695213144E-03  0.136980223621E-03  0.873004188041E-04  0.547754095664E-04  0.338188198116E-04
  0.205362242348E-04  0.122588806356E-04  0.718986064052E-05  0.414088624546E-05  0.234058880470E-05
  0.129766796585E-05  0.705257746188E-06  0.375498683592E-06  0.195734189800E-06  0.998239738991E-07
  0.497754873703E-07  0.242494266994E-07  0.115338788408E-07  0.535191862631E-08  0.242083588431E-08
  0.106657986918E-08  0.457333094816E-09  0.190682259329E-09  0.772398275178E-10  0.303688154904E-10
  0.115786767161E-10  0.427670909637E-11  0.152876609799E-11  0.528322171385E-12  0.176324824774E-12
  0.567674173964E-13  0.176097553853E-13  0.525721959721E-14  0.150858460345E-14  0.415563715107E-15
  0.109744952184E-15  0.277469656242E-16  0.670680098186E-17  0.154756453186E-17  0.340376048323E-18
  0.712472447356E-19  0.141702017331E-19  0.267337816327E-20  0.477612433480E-21  0.806589344905E-22
  0.128527880519E-22  0.192881896028E-23  0.272075946858E-24  0.360016081062E-25  0.445951382854E-26
  0.516011199631E-27  0.556518007526E-28  0.558161154107E-29  0.519374207451E-30  0.447289631952E-31
  0.355629990309E-32  0.260367891573E-33  0.175064565194E-34  0.107804238351E-35  0.606270898466E-37
  0.310468696030E-38  0.144336180909E-39  0.607271593111E-41  0.230484607408E-42  0.786517690571E-44
  0.240488010869E-45  0.656539175165E-47
 kinetic energy-density
  0.132175359298E+00  0.133934922334E+00  0.135761433132E+00  0.137657992670E+00  0.139627696619E+00
  0.141673927295E+00  0.143799500496E+00  0.146008676819E+00  0.148304768593E+00  0.150692037550E+00
  0.153174592370E+00  0.155756926490E+00  0.158443724597E+00  0.161239998599E+00  0.164150979471E+00
  0.167182160118E+00  0.170339406432E+00  0.173628825911E+00  0.177056890152E+00  0.180630402417E+00
  0.184356546754E+00  0.188242882397E+00  0.192297380534E+00  0.196528442009E+00  0.200944923915E+00
  0.205556162290E+00  0.210372007069E+00  0.215402842558E+00  0.220659635012E+00  0.226153936007E+00
  0.231897972674E+00  0.237904604375E+00  0.244187471325E+00  0.250760917296E+00  0.257640162069E+00
  0.264841167874E+00  0.272381153950E+00  0.280277663180E+00  0.288549849880E+00  0.297217874330E+00
  0.306302839392E+00  0.315827114105E+00  0.325814512040E+00  0.336290191996E+00  0.347280782458E+00
  0.358814325037E+00  0.370920696609E+00  0.383631528596E+00  0.396980261001E+00  0.411002406416E+00
  0.425735441776E+00  0.441219103243E+00  0.457495823050E+00  0.474609969929E+00  0.492609215294E+00
  0.511543740684E+00  0.531466742719E+00  0.552434833566E+00  0.574507969902E+00  0.597749679366E+00
  0.622227413642E+00  0.648012684333E+00  0.675181462413E+00  0.703814274030E+00  0.733996641234E+00
  0.765819261046E+00  0.799378432777E+00  0.834776340370E+00  0.872121544375E+00  0.911529213993E+00
  0.953121528021E+00  0.997028613042E+00  0.104338807052E+01  0.109234610786E+01  0.114405866183E+01
  0.119869068044E+01  0.125641724924E+01  0.131742479440E+01  0.138191086663E+01  0.145008602723E+01
  0.152217267487E+01  0.159840841209E+01  0.167904466533E+01  0.176434892232E+01  0.185460533706E+01
  0.195011564886E+01  0.205120035997E+01  0.215820007462E+01  0.227147662631E+01  0.239141423813E+01
  0.251842134620E+01  0.265293152534E+01  0.279540559147E+01  0.294633308413E+01  0.310623394117E+01
  0.327566044774E+01  0.345519942483E+01  0.364547413422E+01  0.384714651844E+01  0.406091980636E+01
  0.428754092445E+01  0.452780303528E+01  0.478254865784E+01  0.505267250232E+01  0.533912470905E+01
  0.564291416100E+01  0.596511230625E+01  0.630685638674E+01  0.666935438494E+01  0.705388826939E+01
  0.746181864518E+01  0.789459086696E+01  0.835373750037E+01  0.884088626747E+01  0.935776370686E+01
  0.990620206875E+01  0.104881452327E+02  0.111056553832E+02  0.117609200093E+02  0.124562589936E+02
  0.131941322519E+02  0.139771490721E+02  0.148080742975E+02  0.156898399262E+02  0.166255529959E+02
  0.176185058382E+02  0.186721871477E+02  0.197902923809E+02  0.209767356465E+02  0.222356617535E+02
  0.235714589633E+02  0.249887727054E+02  0.264925187028E+02  0.280878986315E+02  0.297804145496E+02
  0.315758858195E+02  0.334804646744E+02  0.355006548639E+02  0.376433285913E+02  0.399157465039E+02
  0.423255765878E+02  0.448809147558E+02  0.475903062309E+02  0.504627671938E+02  0.535078069378E+02
  0.567354538836E+02  0.601562740015E+02  0.637814033508E+02  0.676225669762E+02  0.716921078905E+02
  0.760030148055E+02  0.805689455143E+02  0.854042611492E+02  0.905240453913E+02  0.959441427845E+02
  0.101681177977E+03  0.107752592371E+03  0.114176666596E+03  0.120972552773E+03  0.128160301057E+03
  0.135760886729E+03  0.143796237719E+03  0.152289259589E+03  0.161263859378E+03  0.170744968292E+03
  0.180758563951E+03  0.191331684769E+03  0.202492449472E+03  0.214270066618E+03  0.226694844481E+03
  0.239798194400E+03  0.253612631141E+03  0.268171766650E+03  0.283510298141E+03  0.299663989133E+03
  0.316669644200E+03  0.334565073015E+03  0.353389047560E+03  0.373181248382E+03  0.393982198281E+03
  0.415833186955E+03  0.438776179997E+03  0.462853713912E+03  0.488108777503E+03  0.514584674687E+03
  0.542324868355E+03  0.571372814773E+03  0.601771757830E+03  0.633564525793E+03  0.666793288738E+03
  0.701499294335E+03  0.737722589266E+03  0.775501699491E+03  0.814873296137E+03  0.855871822522E+03
  0.898529107918E+03  0.942873929636E+03  0.988931570548E+03  0.103672333103E+04  0.108626601193E+04
  0.113757137908E+04  0.119064559064E+04  0.124548860113E+04  0.130209354210E+04  0.136044607669E+04
  0.142052374137E+04  0.148229526392E+04  0.154571987820E+04  0.161074662308E+04  0.167731364973E+04
  0.174534752686E+04  0.181476256712E+04  0.188546016237E+04  0.195732816583E+04  0.203024029704E+04
  0.210405561400E+04  0.217861803447E+04  0.225375594384E+04  0.232928188291E+04  0.240499234224E+04
  0.248066767364E+04  0.255607213027E+04  0.263095405373E+04  0.270504622266E+04  0.277806637569E+04
  0.284971792232E+04  0.291969085993E+04  0.298766289826E+04  0.305330081418E+04  0.311626203317E+04
  0.317619645553E+04  0.323274851735E+04  0.328555949697E+04  0.333427005860E+04  0.337852302635E+04
  0.341796637497E+04  0.345225642472E+04  0.348106121747E+04  0.350406404142E+04  0.352096708619E+04
  0.353149517385E+04  0.353539954144E+04  0.353246161090E+04  0.352249670885E+04  0.350535766831E+04
  0.348093826265E+04  0.344917639893E+04  0.341005701605E+04  0.336361461286E+04  0.330993534594E+04
  0.324915863230E+04  0.318147819044E+04  0.310714246912E+04  0.302645440370E+04  0.293977046042E+04
  0.284749892621E+04  0.275009742069E+04  0.264806960925E+04  0.254196111851E+04  0.243235466160E+04
  0.231986440322E+04  0.220512961015E+04  0.208880765323E+04  0.197156645037E+04  0.185407646003E+04
  0.173700235755E+04  0.162099460999E+04  0.150668096519E+04  0.139465830267E+04  0.128548488438E+04
  0.117967334177E+04  0.107768467666E+04  0.979923602975E+03  0.886735570052E+03  0.798405742029E+03
  0.715159970065E+03  0.637167311145E+03  0.564542992801E+03  0.497350257609E+03  0.435599805156E+03
  0.379246857249E+03  0.328187666872E+03  0.282258420112E+03  0.241239057774E+03  0.204862611282E+03
  0.172828208135E+03  0.144814513272E+03  0.120490951017E+03  0.995258554277E+02  0.815921604920E+02
  0.663716392462E+02  0.535583898124E+02  0.428618420926E+02  0.340093008916E+02  0.267479560236E+02
  0.208462992017E+02  0.160949283404E+02  0.123067614073E+02  0.931671333272E+01  0.698090990260E+01
  0.517552367589E+01  0.379532124129E+01  0.275201014992E+01  0.197246888631E+01  0.139693522757E+01
  0.977217983846E+00  0.674985359165E+00  0.460170692067E+00  0.309524006907E+00  0.205326234266E+00
  0.134272727265E+00  0.865241481836E-01  0.549161363228E-01  0.343144071897E-01  0.210989668890E-01
  0.127597319673E-01  0.758574121990E-02  0.443101968700E-02  0.254169790688E-02  0.143092285464E-02
  0.790186711125E-03  0.427764798256E-03  0.226868357364E-03  0.117803708430E-03  0.598512600186E-04
  0.297317424871E-04  0.144309058083E-04  0.683874100383E-05  0.316184581695E-05  0.142511201228E-05
  0.625679306603E-06  0.267355006762E-06  0.111092838351E-06  0.448497786641E-07  0.175757437694E-07
  0.667937531847E-08  0.245924970219E-08  0.876346295166E-09  0.301927106320E-09  0.100464605997E-09
  0.322495741201E-10  0.997546854204E-11  0.296976514779E-11  0.849871705228E-12  0.233491659841E-12
  0.615036796645E-13  0.155112822825E-13  0.374020991069E-14  0.861013369860E-15  0.188943581705E-15
  0.394624170262E-16  0.783183070142E-17  0.147450788513E-17  0.262898472980E-18  0.443113920182E-19
  0.704748096600E-20  0.105565824354E-20  0.148640629620E-21  0.196337661526E-22  0.242784564648E-23
  0.280453473054E-24  0.301970272345E-25  0.302372214589E-26  0.280913690698E-27  0.241548025437E-28
  0.191754674412E-29  0.140177265917E-30  0.941107945358E-32  0.578675660952E-33  0.324960095534E-34
  0.166168703665E-35  0.771395585826E-37  0.324082732323E-38  0.122824240942E-39  0.418519451757E-41
  0.127778710765E-42  0.348315951701E-44
 mkinetic energy-density pseudized
  0.334210080475E-07  0.356298826206E-07  0.379847470105E-07  0.404952500339E-07  0.431716782210E-07
  0.460249979636E-07  0.490669004484E-07  0.523098495607E-07  0.557671329536E-07  0.594529164932E-07
  0.633823023015E-07  0.675713906359E-07  0.720373458583E-07  0.767984667641E-07  0.818742615602E-07
  0.872855277972E-07  0.930544375856E-07  0.992046284436E-07  0.105761300150E-06  0.112751317995E-06
  0.120203322863E-06  0.128147848581E-06  0.136617447029E-06  0.145646821520E-06  0.155272968990E-06
  0.165535331591E-06  0.176475958301E-06  0.188139677214E-06  0.200574279222E-06  0.213830713827E-06
  0.227963297908E-06  0.243029938272E-06  0.259092368926E-06  0.276216404024E-06  0.294472207532E-06
  0.313934580721E-06  0.334683268652E-06  0.356803286925E-06  0.380385270024E-06  0.405525842678E-06
  0.432328015771E-06  0.460901608420E-06  0.491363697943E-06  0.523839099574E-06  0.558460877876E-06
  0.595370891961E-06  0.634720376740E-06  0.676670562590E-06  0.721393335978E-06  0.769071943747E-06
  0.819901743945E-06  0.874091006286E-06  0.931861765505E-06  0.993450731124E-06  0.105911025734E-05
  0.112910937700E-05  0.120373490396E-05  0.128329260825E-05  0.136810846892E-05  0.145853000970E-05
  0.155492772295E-05  0.165769658770E-05  0.176725768801E-05  0.188405993828E-05  0.200858192270E-05
  0.214133385607E-05  0.228285967442E-05  0.243373926365E-05  0.259459083558E-05  0.276607346090E-05
  0.294888976969E-05  0.314378883029E-05  0.335156921847E-05  0.357308228952E-05  0.380923566645E-05
  0.406099695888E-05  0.432939772761E-05  0.461553771124E-05  0.492058933216E-05  0.524580250031E-05
  0.559250973439E-05  0.596213162162E-05  0.635618263825E-05  0.677627735479E-05  0.722413705133E-05
  0.770159677004E-05  0.821061283380E-05  0.875327086173E-05  0.933179431437E-05  0.994855360375E-05
  0.106060758054E-04  0.113070550121E-04  0.120543633723E-04  0.128510628578E-04  0.137004178085E-04
  0.146059083075E-04  0.155712444390E-04  0.166003814888E-04  0.176975361496E-04  0.188672037968E-04
  0.201141769059E-04  0.214435646878E-04  0.228608140206E-04  0.243717317653E-04  0.259825085557E-04
  0.276997441612E-04  0.295304745246E-04  0.314822005869E-04  0.335629190171E-04  0.357811549721E-04
  0.381459970220E-04  0.406671343819E-04  0.433548966050E-04  0.462202958978E-04  0.492750722309E-04
  0.525317414313E-04  0.560036464508E-04  0.597050120226E-04  0.636510029287E-04  0.678577861163E-04
  0.723425969184E-04  0.771238096484E-04  0.822210128583E-04  0.876550895687E-04  0.934483027978E-04
  0.996243867394E-04  0.106208643964E-03  0.113228049041E-03  0.120711358997E-03  0.128689231084E-03
  0.137194348304E-03  0.146261553244E-03  0.155927990729E-03  0.166233259908E-03  0.177219576370E-03
  0.188931944972E-03  0.201418344065E-03  0.214729921891E-03  0.228921205932E-03  0.244050326078E-03
  0.260179252527E-03  0.277374049373E-03  0.295705144926E-03  0.315247619868E-03  0.336081514407E-03
  0.358292155693E-03  0.381970506822E-03  0.407213538840E-03  0.434124627285E-03  0.462813974843E-03
  0.493399061868E-03  0.526005126574E-03  0.560765676855E-03  0.597823035812E-03  0.637328923186E-03
  0.679445075065E-03  0.724343904361E-03  0.772209204734E-03  0.823236900801E-03  0.877635847660E-03
  0.935628682954E-03  0.997452734893E-03  0.106336098991E-02  0.113362312381E-02  0.120852660055E-02
  0.128837784311E-02  0.137350348101E-02  0.146425167962E-02  0.156099355640E-02  0.166412468981E-02
  0.177406672687E-02  0.189126909568E-02  0.201621082972E-02  0.214940251111E-02  0.229138834051E-02
  0.244274834164E-02  0.260410070926E-02  0.277610430960E-02  0.295946134293E-02  0.315492017872E-02
  0.336327837423E-02  0.358538588807E-02  0.382214850112E-02  0.407453145769E-02  0.434356334090E-02
  0.463034019651E-02  0.493602992104E-02  0.526187693013E-02  0.560920712453E-02  0.597943317189E-02
  0.637406012345E-02  0.679469138594E-02  0.724303506994E-02  0.772091073704E-02  0.823025656950E-02
  0.877313698691E-02  0.935175073607E-02  0.996843948089E-02  0.106256969210E-01  0.113261784684E-01
  0.120727115136E-01  0.128683063121E-01  0.137161675262E-01  0.146197064553E-01  0.155825539903E-01
  0.166085743299E-01  0.177018794942E-01  0.188668446755E-01  0.201081244643E-01  0.214306699899E-01
  0.228397470138E-01  0.243409550168E-01  0.259402473153E-01  0.276439522468E-01  0.294587954584E-01
  0.313919233308E-01  0.334509275709E-01  0.356438709954E-01  0.379793145294E-01  0.404663454335E-01
  0.431146067678E-01  0.459343280897E-01  0.489363573748E-01  0.521321941327E-01  0.555340236784E-01
  0.591547524986E-01  0.630080446325E-01  0.671083589601E-01  0.714709872651E-01  0.761120929019E-01
  0.810487498599E-01  0.862989819744E-01  0.918818019791E-01  0.978172500400E-01  0.104126431341E+00
  0.110831552219E+00  0.117955954250E+00  0.125524145609E+00  0.133561828893E+00  0.142095924486E+00
  0.151154588405E+00  0.160767223399E+00  0.170964481909E+00  0.181778259289E+00  0.193241675483E+00
  0.205389043106E+00  0.218255819604E+00  0.231878540894E+00  0.246294733548E+00  0.261542802248E+00
  0.277661888861E+00  0.294691699072E+00  0.312672292104E+00  0.331643828554E+00  0.351646270954E+00
  0.372719031124E+00  0.394900557899E+00  0.418227858329E+00  0.442735944921E+00  0.468457201095E+00
  0.495420656567E+00  0.523651164113E+00  0.553168468922E+00  0.583986161733E+00  0.616110507118E+00
  0.649539138720E+00  0.684259614050E+00  0.720247822696E+00  0.757466243561E+00  0.795862049219E+00
  0.835365058680E+00  0.875885544136E+00  0.917311902523E+00  0.959508209494E+00  0.100231168154E+01
  0.104553008204E+01  0.108893911892E+01  0.113227989576E+01  0.117525649483E+01  0.121753378937E+01
  0.125873560436E+01  0.129844336912E+01  0.133619543170E+01  0.137148723362E+01  0.140377257315E+01
  0.143246621558E+01  0.145694813685E+01  0.147656971200E+01  0.149066217789E+01  0.149854770678E+01
  0.149955341954E+01  0.149302863709E+01  0.147836560969E+01  0.145502386620E+01  0.142255818005E+01
  0.138064994345E+01  0.132914146481E+01  0.126807234492E+01  0.119771663421E+01  0.111861892019E+01
  0.103162683893E+01  0.937916755622E+00  0.839008538024E+00  0.736764493797E+00  0.633366724315E+00
  0.531266462252E+00  0.433098547267E+00  0.341554238892E+00  0.259206305370E+00  0.188282049278E+00
  0.130382965603E+00  0.861544283292E-01  0.549155045124E-01  0.343144071897E-01  0.210989668890E-01
  0.127597319673E-01  0.758574121990E-02  0.443101968700E-02  0.254169790688E-02  0.143092285464E-02
  0.790186711125E-03  0.427764798256E-03  0.226868357364E-03  0.117803708430E-03  0.598512600186E-04
  0.297317424871E-04  0.144309058083E-04  0.683874100383E-05  0.316184581695E-05  0.142511201228E-05
  0.625679306603E-06  0.267355006762E-06  0.111092838351E-06  0.448497786641E-07  0.175757437694E-07
  0.667937531847E-08  0.245924970219E-08  0.876346295166E-09  0.301927106320E-09  0.100464605997E-09
  0.322495741201E-10  0.997546854204E-11  0.296976514779E-11  0.849871705228E-12  0.233491659841E-12
  0.615036796645E-13  0.155112822825E-13  0.374020991069E-14  0.861013369860E-15  0.188943581705E-15
  0.394624170262E-16  0.783183070142E-17  0.147450788513E-17  0.262898472980E-18  0.443113920182E-19
  0.704748096600E-20  0.105565824354E-20  0.148640629620E-21  0.196337661526E-22  0.242784564648E-23
  0.280453473054E-24  0.301970272345E-25  0.302372214589E-26  0.280913690698E-27  0.241548025437E-28
  0.191754674412E-29  0.140177265917E-30  0.941107945358E-32  0.578675660952E-33  0.324960095534E-34
  0.166168703665E-35  0.771395585826E-37  0.324082732323E-38  0.122824240942E-39  0.418519451757E-41
  0.127778710765E-42  0.348315951701E-44
 local pseudopotential core
 -0.235270267363E+03 -0.235271097422E+03 -0.235271901339E+03 -0.235272679939E+03 -0.235273434018E+03
 -0.235274164350E+03 -0.235274871681E+03 -0.235275556736E+03 -0.235276220218E+03 -0.235276862804E+03
 -0.235277485154E+03 -0.235278087905E+03 -0.235278671673E+03 -0.235279237058E+03 -0.235279784637E+03
 -0.235280314972E+03 -0.235280828606E+03 -0.235281326065E+03 -0.235281807858E+03 -0.235282274479E+03
 -0.235282726405E+03 -0.235283164100E+03 -0.235283588011E+03 -0.235283998574E+03 -0.235284396208E+03
 -0.235284781321E+03 -0.235285154307E+03 -0.235285515548E+03 -0.235285865414E+03 -0.235286204264E+03
 -0.235286532444E+03 -0.235286850292E+03 -0.235287158131E+03 -0.235287456278E+03 -0.235287745039E+03
 -0.235288024708E+03 -0.235288295572E+03 -0.235288557910E+03 -0.235288811989E+03 -0.235289058070E+03
 -0.235289296405E+03 -0.235289527239E+03 -0.235289750807E+03 -0.235289967340E+03 -0.235290177058E+03
 -0.235290380178E+03 -0.235290576906E+03 -0.235290767445E+03 -0.235290951990E+03 -0.235291130730E+03
 -0.235291303849E+03 -0.235291471524E+03 -0.235291633927E+03 -0.235291791225E+03 -0.235291943579E+03
 -0.235292091146E+03 -0.235292234076E+03 -0.235292372517E+03 -0.235292506611E+03 -0.235292636496E+03
 -0.235292762305E+03 -0.235292884167E+03 -0.235293002208E+03 -0.235293116549E+03 -0.235293227308E+03
 -0.235293334599E+03 -0.235293438533E+03 -0.235293539216E+03 -0.235293636753E+03 -0.235293731244E+03
 -0.235293822787E+03 -0.235293911477E+03 -0.235293997405E+03 -0.235294080660E+03 -0.235294161329E+03
 -0.235294239496E+03 -0.235294315242E+03 -0.235294388646E+03 -0.235294459784E+03 -0.235294528732E+03
 -0.235294595560E+03 -0.235294660340E+03 -0.235294723140E+03 -0.235294784026E+03 -0.235294843062E+03
 -0.235294900311E+03 -0.235294955835E+03 -0.235295009692E+03 -0.235295061941E+03 -0.235295112638E+03
 -0.235295161839E+03 -0.235295209596E+03 -0.235295255962E+03 -0.235295300990E+03 -0.235295344728E+03
 -0.235295387226E+03 -0.235295428532E+03 -0.235295468693E+03 -0.235295507757E+03 -0.235295545767E+03
 -0.235295582770E+03 -0.235295618809E+03 -0.235295653928E+03 -0.235295688170E+03 -0.235295721579E+03
 -0.235295754195E+03 -0.235295786063E+03 -0.235295817223E+03 -0.235295847718E+03 -0.235295877588E+03
 -0.235295906877E+03 -0.235295935626E+03 -0.235295963878E+03 -0.235295991675E+03 -0.235296019060E+03
 -0.235296046076E+03 -0.235296072769E+03 -0.235296099183E+03 -0.235296125363E+03 -0.235296151358E+03
 -0.235296177214E+03 -0.235296202982E+03 -0.235296228711E+03 -0.235296254455E+03 -0.235296280267E+03
 -0.235296306204E+03 -0.235296332322E+03 -0.235296358684E+03 -0.235296385350E+03 -0.235296412387E+03
 -0.235296439863E+03 -0.235296467849E+03 -0.235296496421E+03 -0.235296525656E+03 -0.235296555637E+03
 -0.235296586451E+03 -0.235296618189E+03 -0.235296650946E+03 -0.235296684825E+03 -0.235296719931E+03
 -0.235296756379E+03 -0.235296794286E+03 -0.235296833780E+03 -0.235296874995E+03 -0.235296918070E+03
 -0.235296963158E+03 -0.235297010416E+03 -0.235297060013E+03 -0.235297112129E+03 -0.235297166953E+03
 -0.235297224688E+03 -0.235297285547E+03 -0.235297349758E+03 -0.235297417564E+03 -0.235297489221E+03
 -0.235297565005E+03 -0.235297645205E+03 -0.235297730131E+03 -0.235297820112E+03 -0.235297915500E+03
 -0.235298016667E+03 -0.235298124010E+03 -0.235298237952E+03 -0.235298358942E+03 -0.235298487459E+03
 -0.235298624012E+03 -0.235298769145E+03 -0.235298923435E+03 -0.235299087497E+03 -0.235299261986E+03
 -0.235299447599E+03 -0.235299645080E+03 -0.235299855218E+03 -0.235300078855E+03 -0.235300316887E+03
 -0.235300570269E+03 -0.235300840017E+03 -0.235301127212E+03 -0.235301433006E+03 -0.235301758625E+03
 -0.235302105372E+03 -0.235302474638E+03 -0.235302867899E+03 -0.235303286729E+03 -0.235303732802E+03
 -0.235304207897E+03 -0.235304713911E+03 -0.235305252858E+03 -0.235305826882E+03 -0.235306438262E+03
 -0.235307089422E+03 -0.235307782939E+03 -0.235308521551E+03 -0.235309308170E+03 -0.235310145887E+03
 -0.235311037987E+03 -0.235311987959E+03 -0.235312999506E+03 -0.235314076560E+03 -0.235315223292E+03
 -0.235316444125E+03 -0.235317743753E+03 -0.235319127146E+03 -0.235320599574E+03 -0.235322166617E+03
 -0.235323834181E+03 -0.235325608513E+03 -0.235327496222E+03 -0.235329504289E+03 -0.235331640088E+03
 -0.235333911399E+03 -0.235336326427E+03 -0.235338893816E+03 -0.235341622665E+03 -0.235344522540E+03
 -0.235347603492E+03 -0.235350876061E+03 -0.235354351295E+03 -0.235358040746E+03 -0.235361956484E+03
 -0.235366111091E+03 -0.235370517659E+03 -0.235375189777E+03 -0.235380141520E+03 -0.235385387421E+03
 -0.235390942438E+03 -0.235396821912E+03 -0.235403041511E+03 -0.235409617154E+03 -0.235416564931E+03
 -0.235423900989E+03 -0.235431641403E+03 -0.235439802022E+03 -0.235448398276E+03 -0.235457444961E+03
 -0.235466955967E+03 -0.235476943976E+03 -0.235487420097E+03 -0.235498393443E+03 -0.235509870637E+03
 -0.235521855241E+03 -0.235534347097E+03 -0.235547341555E+03 -0.235560828598E+03 -0.235574791822E+03
 -0.235589207273E+03 -0.235604042106E+03 -0.235619253061E+03 -0.235634784712E+03 -0.235650567468E+03
 -0.235666515306E+03 -0.235682523181E+03 -0.235698464086E+03 -0.235714185723E+03 -0.235729506723E+03
 -0.235744212374E+03 -0.235758049792E+03 -0.235770722482E+03 -0.235781884202E+03 -0.235791132066E+03
 -0.235797998807E+03 -0.235801944092E+03 -0.235802344818E+03 -0.235798484267E+03 -0.235789540017E+03
 -0.235774570504E+03 -0.235752500103E+03 -0.235722102609E+03 -0.235681983012E+03 -0.235630557412E+03
 -0.235566030987E+03 -0.235486373889E+03 -0.235389294973E+03 -0.235272213292E+03 -0.235132227297E+03
 -0.234966081747E+03 -0.234770132354E+03 -0.234540308267E+03 -0.234272072579E+03 -0.233960381118E+03
 -0.233599639931E+03 -0.233183661976E+03 -0.232705623742E+03 -0.232158022705E+03 -0.231532636757E+03
 -0.230820487068E+03 -0.230011806127E+03 -0.229096013149E+03 -0.228061699472E+03 -0.226896627120E+03
 -0.225587744383E+03 -0.224121222988E+03 -0.222482522396E+03 -0.220656487781E+03 -0.218627489526E+03
 -0.216379613436E+03 -0.213896912443E+03 -0.211163732130E+03 -0.208165123914E+03 -0.204887360840E+03
 -0.201318571297E+03 -0.197449505078E+03 -0.193274443215E+03 -0.188792257145E+03 -0.184007612751E+03
 -0.178932299547E+03 -0.173586643082E+03 -0.168000928029E+03 -0.162216718583E+03 -0.156287910982E+03
 -0.150281293094E+03 -0.144276331811E+03 -0.138355257328E+03 -0.132668292739E+03 -0.127280913533E+03
 -0.122297599357E+03 -0.117823589215E+03 -0.114117790645E+03 -0.111104550899E+03 -0.108792023969E+03
 -0.105357532771E+03 -0.102040185098E+03 -0.988265994319E+02 -0.957142197492E+02 -0.926998589313E+02
 -0.897804298553E+02 -0.869529430048E+02 -0.842145028347E+02 -0.815623050187E+02 -0.789936335297E+02
 -0.765058578675E+02 -0.740964304812E+02 -0.717628837878E+02 -0.695028281286E+02 -0.673139490406E+02
 -0.651940049454E+02 -0.631408248643E+02 -0.611523061803E+02 -0.592264125174E+02 -0.573611716108E+02
 -0.555546733192E+02 -0.538050676666E+02 -0.521105629338E+02 -0.504694238217E+02 -0.488799697048E+02
 -0.473405728530E+02 -0.458496568107E+02 -0.444056947655E+02 -0.430072079854E+02 -0.416527643063E+02
 -0.403409766650E+02 -0.390705016823E+02 -0.378400382819E+02 -0.366483263651E+02 -0.354941455160E+02
 -0.343763137542E+02 -0.332936863235E+02 -0.322451545199E+02 -0.312296445561E+02 -0.302461164620E+02
 -0.292935630196E+02 -0.283710087315E+02 -0.274775088222E+02 -0.266121482701E+02 -0.257740408712E+02
 -0.249623283306E+02 -0.241761793844E+02 -0.234147889479E+02 -0.226773772913E+02 -0.219631892413E+02
 -0.212714934074E+02 -0.206015814332E+02 -0.199527672709E+02 -0.193243864787E+02 -0.187157955403E+02
 -0.181263712059E+02 -0.175555098540E+02
 pspotential valence only
 -0.153246882559E+03 -0.153247712602E+03 -0.153248516502E+03 -0.153249295084E+03 -0.153250049144E+03
 -0.153250779456E+03 -0.153251486766E+03 -0.153252171798E+03 -0.153252835255E+03 -0.153253477815E+03
 -0.153254100136E+03 -0.153254702858E+03 -0.153255286594E+03 -0.153255851945E+03 -0.153256399488E+03
 -0.153256929785E+03 -0.153257443378E+03 -0.153257940793E+03 -0.153258422539E+03 -0.153258889110E+03
 -0.153259340983E+03 -0.153259778622E+03 -0.153260202473E+03 -0.153260612971E+03 -0.153261010537E+03
 -0.153261395577E+03 -0.153261768485E+03 -0.153262129643E+03 -0.153262479421E+03 -0.153262818176E+03
 -0.153263146256E+03 -0.153263463996E+03 -0.153263771721E+03 -0.153264069747E+03 -0.153264358377E+03
 -0.153264637908E+03 -0.153264908625E+03 -0.153265170805E+03 -0.153265424716E+03 -0.153265670619E+03
 -0.153265908763E+03 -0.153266139394E+03 -0.153266362745E+03 -0.153266579047E+03 -0.153266788519E+03
 -0.153266991375E+03 -0.153267187824E+03 -0.153267378065E+03 -0.153267562291E+03 -0.153267740693E+03
 -0.153267913450E+03 -0.153268080739E+03 -0.153268242732E+03 -0.153268399591E+03 -0.153268551478E+03
 -0.153268698547E+03 -0.153268840946E+03 -0.153268978821E+03 -0.153269112312E+03 -0.153269241553E+03
 -0.153269366676E+03 -0.153269487807E+03 -0.153269605069E+03 -0.153269718579E+03 -0.153269828453E+03
 -0.153269934799E+03 -0.153270037726E+03 -0.153270137336E+03 -0.153270233728E+03 -0.153270326999E+03
 -0.153270417242E+03 -0.153270504545E+03 -0.153270588995E+03 -0.153270670674E+03 -0.153270749663E+03
 -0.153270826039E+03 -0.153270899876E+03 -0.153270971244E+03 -0.153271040212E+03 -0.153271106846E+03
 -0.153271171208E+03 -0.153271233359E+03 -0.153271293355E+03 -0.153271351252E+03 -0.153271407102E+03
 -0.153271460955E+03 -0.153271512857E+03 -0.153271562854E+03 -0.153271610987E+03 -0.153271657297E+03
 -0.153271701819E+03 -0.153271744590E+03 -0.153271785640E+03 -0.153271824999E+03 -0.153271862695E+03
 -0.153271898751E+03 -0.153271933190E+03 -0.153271966030E+03 -0.153271997288E+03 -0.153272026977E+03
 -0.153272055109E+03 -0.153272081690E+03 -0.153272106727E+03 -0.153272130220E+03 -0.153272152170E+03
 -0.153272172570E+03 -0.153272191413E+03 -0.153272208689E+03 -0.153272224381E+03 -0.153272238471E+03
 -0.153272250936E+03 -0.153272261750E+03 -0.153272270880E+03 -0.153272278292E+03 -0.153272283945E+03
 -0.153272287793E+03 -0.153272289786E+03 -0.153272289868E+03 -0.153272287977E+03 -0.153272284044E+03
 -0.153272277995E+03 -0.153272269748E+03 -0.153272259216E+03 -0.153272246301E+03 -0.153272230900E+03
 -0.153272212899E+03 -0.153272192176E+03 -0.153272168600E+03 -0.153272142030E+03 -0.153272112311E+03
 -0.153272079281E+03 -0.153272042762E+03 -0.153272002565E+03 -0.153271958488E+03 -0.153271910311E+03
 -0.153271857802E+03 -0.153271800710E+03 -0.153271738767E+03 -0.153271671687E+03 -0.153271599163E+03
 -0.153271520867E+03 -0.153271436449E+03 -0.153271345534E+03 -0.153271247720E+03 -0.153271142581E+03
 -0.153271029659E+03 -0.153270908466E+03 -0.153270778482E+03 -0.153270639148E+03 -0.153270489873E+03
 -0.153270330021E+03 -0.153270158916E+03 -0.153269975836E+03 -0.153269780011E+03 -0.153269570618E+03
 -0.153269346781E+03 -0.153269107564E+03 -0.153268851969E+03 -0.153268578932E+03 -0.153268287317E+03
 -0.153267975914E+03 -0.153267643431E+03 -0.153267288490E+03 -0.153266909623E+03 -0.153266505264E+03
 -0.153266073742E+03 -0.153265613275E+03 -0.153265121965E+03 -0.153264597787E+03 -0.153264038581E+03
 -0.153263442044E+03 -0.153262805722E+03 -0.153262126997E+03 -0.153261403079E+03 -0.153260630991E+03
 -0.153259807562E+03 -0.153258929409E+03 -0.153257992926E+03 -0.153256994268E+03 -0.153255929338E+03
 -0.153254793764E+03 -0.153253582889E+03 -0.153252291746E+03 -0.153250915041E+03 -0.153249447128E+03
 -0.153247881989E+03 -0.153246213211E+03 -0.153244433954E+03 -0.153242536927E+03 -0.153240514358E+03
 -0.153238357962E+03 -0.153236058906E+03 -0.153233607776E+03 -0.153230994534E+03 -0.153228208481E+03
 -0.153225238212E+03 -0.153222071569E+03 -0.153218695592E+03 -0.153215096466E+03 -0.153211259465E+03
 -0.153207168893E+03 -0.153202808018E+03 -0.153198159006E+03 -0.153193202847E+03 -0.153187919279E+03
 -0.153182286705E+03 -0.153176282106E+03 -0.153169880947E+03 -0.153163057078E+03 -0.153155782630E+03
 -0.153148027898E+03 -0.153139761226E+03 -0.153130948875E+03 -0.153121554890E+03 -0.153111540954E+03
 -0.153100866234E+03 -0.153089487216E+03 -0.153077357533E+03 -0.153064427776E+03 -0.153050645299E+03
 -0.153035954007E+03 -0.153020294135E+03 -0.153003602006E+03 -0.152985809782E+03 -0.152966845191E+03
 -0.152946631247E+03 -0.152925085941E+03 -0.152902121920E+03 -0.152877646146E+03 -0.152851559531E+03
 -0.152823756547E+03 -0.152794124821E+03 -0.152762544697E+03 -0.152728888776E+03 -0.152693021423E+03
 -0.152654798253E+03 -0.152614065576E+03 -0.152570659820E+03 -0.152524406910E+03 -0.152475121619E+03
 -0.152422606879E+03 -0.152366653048E+03 -0.152307037146E+03 -0.152243522041E+03 -0.152175855589E+03
 -0.152103769740E+03 -0.152026979580E+03 -0.151945182338E+03 -0.151858056334E+03 -0.151765259879E+03
 -0.151666430124E+03 -0.151561181851E+03 -0.151449106212E+03 -0.151329769420E+03 -0.151202711378E+03
 -0.151067444264E+03 -0.150923451058E+03 -0.150770184030E+03 -0.150607063181E+03 -0.150433474647E+03
 -0.150248769070E+03 -0.150052259951E+03 -0.149843221987E+03 -0.149620889416E+03 -0.149384454379E+03
 -0.149133065319E+03 -0.148865825454E+03 -0.148581791339E+03 -0.148279971564E+03 -0.147959325633E+03
 -0.147618763068E+03 -0.147257142813E+03 -0.146873273004E+03 -0.146465911200E+03 -0.146033765172E+03
 -0.145575494378E+03 -0.145089712260E+03 -0.144574989527E+03 -0.144029858597E+03 -0.143452819418E+03
 -0.142842346871E+03 -0.142196900025E+03 -0.141514933465E+03 -0.140794910988E+03 -0.140035321885E+03
 -0.139234700062E+03 -0.138391646148E+03 -0.137504852711E+03 -0.136573132545E+03 -0.135595449857E+03
 -0.134570953973E+03 -0.133499014903E+03 -0.132379259826E+03 -0.131211609141E+03 -0.129996310334E+03
 -0.128733967430E+03 -0.127425563262E+03 -0.126072471265E+03 -0.124676452880E+03 -0.123239636120E+03
 -0.121764470305E+03 -0.120253651649E+03 -0.118710014439E+03 -0.117136383347E+03 -0.115535384481E+03
 -0.113909216728E+03 -0.112259391203E+03 -0.110586455132E+03 -0.108889725830E+03 -0.107167067771E+03
 -0.105414748088E+03 -0.103627405391E+03 -0.101789542831E+03 -0.999437140151E+02 -0.980425107507E+02
 -0.960788508770E+02 -0.940558312049E+02 -0.921487025823E+02 -0.902257324162E+02 -0.882744866606E+02
 -0.863188134730E+02 -0.843780048830E+02 -0.824450744932E+02 -0.805234851994E+02 -0.786156712732E+02
 -0.767237567928E+02 -0.748495516535E+02 -0.729945622392E+02 -0.711600178293E+02 -0.693469132042E+02
 -0.675560653957E+02 -0.657881807429E+02 -0.640439269470E+02 -0.623240028446E+02 -0.606291995903E+02
 -0.589604468790E+02 -0.573188399977E+02 -0.557056454730E+02 -0.541222852492E+02 -0.525703011285E+02
 -0.510513025120E+02 -0.495669012821E+02 -0.481186381574E+02 -0.467079052121E+02 -0.453358696671E+02
 -0.440034044777E+02 -0.427110315137E+02 -0.414588828986E+02 -0.402466850425E+02 -0.390737679271E+02
 -0.379390994445E+02 -0.368413415363E+02 -0.357789222033E+02 -0.347501157601E+02 -0.337531233439E+02
 -0.327861466199E+02 -0.318474495005E+02 -0.309354049914E+02 -0.300485264856E+02 -0.291854845899E+02
 -0.283451117204E+02 -0.275263972501E+02 -0.267284760438E+02 -0.259506129403E+02 -0.251921852815E+02
 -0.244526650785E+02 -0.237316019165E+02 -0.230286072881E+02 -0.223433407176E+02 -0.216754978054E+02
 -0.210248001598E+02 -0.203909870876E+02 -0.197738088642E+02 -0.191730213824E+02 -0.185883819864E+02
 -0.180196463043E+02 -0.174665659194E+02
 core charge-density (pseudized)
  0.519905608232E-10  0.554267416734E-10  0.590900279549E-10  0.629954296097E-10  0.671589486232E-10
  0.715976445901E-10  0.763297046145E-10  0.813745178299E-10  0.867527548438E-10  0.924864524340E-10
  0.985991038411E-10  0.105115755031E-09  0.112063107316E-09  0.119469626763E-09  0.127365660829E-09
  0.135783562708E-09  0.144757823892E-09  0.154325215499E-09  0.164524938938E-09  0.175398786533E-09
  0.186991312762E-09  0.199350016813E-09  0.212525537213E-09  0.226571859305E-09  0.241546536456E-09
  0.257510925868E-09  0.274530439991E-09  0.292674814535E-09  0.312018394212E-09  0.332640437351E-09
  0.354625440654E-09  0.378063485407E-09  0.403050606586E-09  0.429689186342E-09  0.458088373509E-09
  0.488364530821E-09  0.520641711703E-09  0.555052168564E-09  0.591736894683E-09  0.630846201922E-09
  0.672540336602E-09  0.716990136104E-09  0.764377728851E-09  0.814897280558E-09  0.868755789810E-09
  0.926173936208E-09  0.987386984583E-09  0.105264574897E-08  0.112221762028E-08  0.119638766190E-08
  0.127545977775E-08  0.135975795741E-08  0.144962760371E-08  0.154543694795E-08  0.164757855864E-08
  0.175647095007E-08  0.187256029709E-08  0.199632226323E-08  0.212826394971E-08  0.226892597320E-08
  0.241888468094E-08  0.257875451222E-08  0.274919051601E-08  0.293089103487E-08  0.312460056636E-08
  0.333111281351E-08  0.355127393686E-08  0.378598602153E-08  0.403621077335E-08  0.430297345930E-08
  0.458736710842E-08  0.489055699023E-08  0.521378538934E-08  0.555837669543E-08  0.592574282971E-08
  0.631738903005E-08  0.673492001840E-08  0.718004657580E-08  0.765459255203E-08  0.816050233844E-08
  0.869984883469E-08  0.927484194199E-08  0.988783761774E-08  0.105413475285E-07  0.112380493408E-07
  0.119807976926E-07  0.127726358889E-07  0.136168083713E-07  0.145167740112E-07  0.154762202811E-07
  0.164990783632E-07  0.175895392565E-07  0.187520709472E-07  0.199914367156E-07  0.213127146514E-07
  0.227213184595E-07  0.242230196403E-07  0.258239711362E-07  0.275307325405E-07  0.293502969725E-07
  0.312901197281E-07  0.333581488244E-07  0.355628575625E-07  0.379132792416E-07  0.404190441683E-07
  0.430904191102E-07  0.459383493573E-07  0.489745035630E-07  0.522113215475E-07  0.556620652604E-07
  0.593408731107E-07  0.632628178864E-07  0.674439685016E-07  0.719014558231E-07  0.766535428464E-07
  0.817196995086E-07  0.871206824432E-07  0.928786200058E-07  0.990171029154E-07  0.105561280885E-06
  0.112537965635E-06  0.119975740715E-06  0.127905078574E-06  0.136358465368E-06  0.145370534015E-06
  0.154978206031E-06  0.165220842739E-06  0.176140406465E-06  0.187781632376E-06  0.200192211673E-06
  0.213422986872E-06  0.227528159990E-06  0.242565514469E-06  0.258596651761E-06  0.275687243520E-06
  0.293907300457E-06  0.313331458932E-06  0.334039286467E-06  0.356115607420E-06  0.379650850156E-06
  0.404741417117E-06  0.431490079324E-06  0.460006396888E-06  0.490407167275E-06  0.522816903126E-06
  0.557368341591E-06  0.594202987248E-06  0.633471690816E-06  0.675335266009E-06  0.719965147048E-06
  0.767544089494E-06  0.818266917256E-06  0.872341318792E-06  0.929988695744E-06  0.991445067441E-06
  0.105696203493E-05  0.112680780844E-05  0.120126830242E-05  0.128064830260E-05  0.136527270978E-05
  0.145548786526E-05  0.155166296347E-05  0.165419155726E-05  0.176349316199E-05  0.188001496483E-05
  0.200423364622E-05  0.213665732059E-05  0.227782760421E-05  0.242832181844E-05  0.258875533700E-05
  0.275978408680E-05  0.294210721195E-05  0.313646991183E-05  0.334366646402E-05  0.356454344439E-05
  0.380000315659E-05  0.405100728465E-05  0.431858078276E-05  0.460381601743E-05  0.490787717794E-05
  0.523200497226E-05  0.557752162630E-05  0.594583620572E-05  0.633845028039E-05  0.675696395312E-05
  0.720308227519E-05  0.767862207269E-05  0.818551920909E-05  0.872583631077E-05  0.930177098387E-05
  0.991566455212E-05  0.105700113474E-04  0.112674685859E-04  0.120108668647E-04  0.128032213158E-04
  0.136477434558E-04  0.145478537710E-04  0.155071950816E-04  0.165296467279E-04  0.176193396244E-04
  0.187806722319E-04  0.200183274945E-04  0.213372907958E-04  0.227428689870E-04  0.242407105420E-04
  0.258368268962E-04  0.275376150288E-04  0.293498813456E-04  0.312808669250E-04  0.333382741860E-04
  0.355302950415E-04  0.378656405944E-04  0.403535724397E-04  0.430039356276E-04  0.458271933443E-04
  0.488344633617E-04  0.520375563041E-04  0.554490157711E-04  0.590821603507E-04  0.629511275468E-04
  0.670709196311E-04  0.714574514193E-04  0.761275999496E-04  0.810992560261E-04  0.863913775612E-04
  0.920240446264E-04  0.980185160843E-04  0.104397287640E-03  0.111184151099E-03  0.118404254575E-03
  0.126084163322E-03  0.134251920800E-03  0.142937109507E-03  0.152170911011E-03  0.161986164521E-03
  0.172417423212E-03  0.183501007380E-03  0.195275053366E-03  0.207779557005E-03  0.221056410151E-03
  0.235149428644E-03  0.250104369808E-03  0.265968937303E-03  0.282792770878E-03  0.300627418182E-03
  0.319526285470E-03  0.339544563583E-03  0.360739125162E-03  0.383168388536E-03  0.406892143195E-03
  0.431971331171E-03  0.458467778024E-03  0.486443866460E-03  0.515962144887E-03  0.547084862493E-03
  0.579873421640E-03  0.614387737599E-03  0.650685494867E-03  0.688821288548E-03  0.728845638577E-03
  0.770803863938E-03  0.814734803536E-03  0.860669370061E-03  0.908628923135E-03  0.958623448272E-03
  0.101064952889E-02  0.106468809986E-02  0.112070197289E-02  0.117863312704E-02  0.123839976112E-02
  0.129989311009E-02  0.136297403380E-02  0.142746939502E-02  0.149316825378E-02  0.155981791802E-02
  0.162711990578E-02  0.169472589312E-02  0.176223374340E-02  0.182918373980E-02  0.189505517201E-02
  0.195926346229E-02  0.202115805317E-02  0.208002132098E-02  0.213506882328E-02  0.218545123504E-02
  0.223025837469E-02  0.226852576550E-02  0.229924421654E-02  0.232137293523E-02  0.233385669595E-02
  0.233564757622E-02  0.232573172661E-02  0.230316154845E-02  0.226709350375E-02  0.221683155562E-02
  0.215187592013E-02  0.207197638178E-02  0.197718886698E-02  0.186793326719E-02  0.174504964410E-02
  0.160984893220E-02  0.146415309003E-02  0.131031837504E-02  0.115123408966E-02  0.990287870878E-03
  0.831287525097E-03  0.678328759795E-03  0.535598221098E-03  0.407102379908E-03  0.296315464992E-03
  0.205744332993E-03  0.136415441297E-03  0.872994757747E-04  0.547754095664E-04  0.338188198116E-04
  0.205362242348E-04  0.122588806356E-04  0.718986064052E-05  0.414088624546E-05  0.234058880470E-05
  0.129766796585E-05  0.705257746188E-06  0.375498683592E-06  0.195734189800E-06  0.998239738991E-07
  0.497754873703E-07  0.242494266994E-07  0.115338788408E-07  0.535191862631E-08  0.242083588431E-08
  0.106657986918E-08  0.457333094816E-09  0.190682259329E-09  0.772398275178E-10  0.303688154904E-10
  0.115786767161E-10  0.427670909637E-11  0.152876609799E-11  0.528322171385E-12  0.176324824774E-12
  0.567674173964E-13  0.176097553853E-13  0.525721959721E-14  0.150858460345E-14  0.415563715107E-15
  0.109744952184E-15  0.277469656242E-16  0.670680098186E-17  0.154756453186E-17  0.340376048323E-18
  0.712472447356E-19  0.141702017331E-19  0.267337816327E-20  0.477612433480E-21  0.806589344905E-22
  0.128527880519E-22  0.192881896028E-23  0.272075946858E-24  0.360016081062E-25  0.445951382854E-26
  0.516011199631E-27  0.556518007526E-28  0.558161154107E-29  0.519374207451E-30  0.447289631952E-31
  0.355629990309E-32  0.260367891573E-33  0.175064565194E-34  0.107804238351E-35  0.606270898466E-37
  0.310468696030E-38  0.144336180909E-39  0.607271593111E-41  0.230484607408E-42  0.786517690571E-44
  0.240488010869E-45  0.656539175165E-47
 pseudo wavefunction
  0.165601274909E-03  0.170986215211E-03  0.176546260335E-03  0.182287104253E-03  0.188214626088E-03
  0.194334896143E-03  0.200654182106E-03  0.207178955479E-03  0.213915898199E-03  0.220871909482E-03
  0.228054112893E-03  0.235469863633E-03  0.243126756079E-03  0.251032631556E-03  0.259195586370E-03
  0.267623980099E-03  0.276326444154E-03  0.285311890615E-03  0.294589521364E-03  0.304168837504E-03
  0.314059649088E-03  0.324272085170E-03  0.334816604173E-03  0.345704004605E-03  0.356945436110E-03
  0.368552410895E-03  0.380536815510E-03  0.392910923029E-03  0.405687405616E-03  0.418879347498E-03
  0.432500258372E-03  0.446564087235E-03  0.461085236668E-03  0.476078577590E-03  0.491559464484E-03
  0.507543751121E-03  0.524047806797E-03  0.541088533096E-03  0.558683381199E-03  0.576850369752E-03
  0.595608103326E-03  0.614975791461E-03  0.634973268344E-03  0.655621013119E-03  0.676940170857E-03
  0.698952574216E-03  0.721680765792E-03  0.745148021210E-03  0.769378372957E-03  0.794396634995E-03
  0.820228428171E-03  0.846900206453E-03  0.874439284026E-03  0.902873863259E-03  0.932233063586E-03
  0.962546951331E-03  0.993846570492E-03  0.102616397454E-02  0.105953225923E-02  0.109398559650E-02
  0.112955926949E-02  0.116628970863E-02  0.120421452897E-02  0.124337256871E-02  0.128380392893E-02
  0.132555001474E-02  0.136865357757E-02  0.141315875904E-02  0.145911113612E-02  0.150655776781E-02
  0.155554724334E-02  0.160612973192E-02  0.165835703410E-02  0.171228263484E-02  0.176796175828E-02
  0.182545142426E-02  0.188481050674E-02  0.194609979407E-02  0.200938205127E-02  0.207472208424E-02
  0.214218680617E-02  0.221184530607E-02  0.228376891946E-02  0.235803130147E-02  0.243470850221E-02
  0.251387904471E-02  0.259562400524E-02  0.268002709642E-02  0.276717475284E-02  0.285715621965E-02
  0.295006364387E-02  0.304599216880E-02  0.314504003138E-02  0.324730866281E-02  0.335290279239E-02
  0.346193055474E-02  0.357450360052E-02  0.369073721075E-02  0.381075041481E-02  0.393466611232E-02
  0.406261119894E-02  0.419471669631E-02  0.433111788613E-02  0.447195444871E-02  0.461737060589E-02
  0.476751526870E-02  0.492254218982E-02  0.508261012087E-02  0.524788297500E-02  0.541852999457E-02
  0.559472592442E-02  0.577665119069E-02  0.596449208545E-02  0.615844095735E-02  0.635869640844E-02
  0.656546349740E-02  0.677895394934E-02  0.699938637243E-02  0.722698648150E-02  0.746198732900E-02
  0.770462954338E-02  0.795516157515E-02  0.821383995106E-02  0.848092953640E-02  0.875670380582E-02
  0.904144512301E-02  0.933544502928E-02  0.963900454167E-02  0.995243446058E-02  0.102760556874E-01
  0.106101995524E-01  0.109552081534E-01  0.113114347049E-01  0.116792438992E-01  0.120590122787E-01
  0.124511286202E-01  0.128559943318E-01  0.132740238629E-01  0.137056451266E-01  0.141512999365E-01
  0.146114444572E-01  0.150865496692E-01  0.155771018494E-01  0.160836030661E-01  0.166065716906E-01
  0.171465429251E-01  0.177040693471E-01  0.182797214723E-01  0.188740883338E-01  0.194877780817E-01
  0.201214186006E-01  0.207756581472E-01  0.214511660085E-01  0.221486331801E-01  0.228687730671E-01
  0.236123222065E-01  0.243800410130E-01  0.251727145476E-01  0.259911533114E-01  0.268361940638E-01
  0.277087006668E-01  0.286095649549E-01  0.295397076335E-01  0.305000792046E-01  0.314916609208E-01
  0.325154657699E-01  0.335725394896E-01  0.346639616126E-01  0.357908465450E-01  0.369543446772E-01
  0.381556435279E-01  0.393959689238E-01  0.406765862140E-01  0.419988015215E-01  0.433639630311E-01
  0.447734623162E-01  0.462287357043E-01  0.477312656821E-01  0.492825823415E-01  0.508842648672E-01
  0.525379430664E-01  0.542452989412E-01  0.560080683059E-01  0.578280424472E-01  0.597070698306E-01
  0.616470578522E-01  0.636499746364E-01  0.657178508802E-01  0.678527817449E-01  0.700569287938E-01
  0.723325219784E-01  0.746818616709E-01  0.771073207433E-01  0.796113466941E-01  0.821964638201E-01
  0.848652754332E-01  0.876204661216E-01  0.904648040534E-01  0.934011433215E-01  0.964324263261E-01
  0.995616861952E-01  0.102792049237E+00  0.106126737425E+00  0.109569070903E+00  0.113122470521E+00
  0.116790460376E+00  0.120576670376E+00  0.124484838792E+00  0.128518814820E+00  0.132682561119E+00
  0.136980156329E+00  0.141415797559E+00  0.145993802816E+00  0.150718613386E+00  0.155594796127E+00
  0.160627045674E+00  0.165820186522E+00  0.171179174977E+00  0.176709100948E+00  0.182415189541E+00
  0.188302802442E+00  0.194377439049E+00  0.200644737303E+00  0.207110474207E+00  0.213780565951E+00
  0.220661067624E+00  0.227758172444E+00  0.235078210439E+00  0.242627646537E+00  0.250413077955E+00
  0.258441230846E+00  0.266718956085E+00  0.275253224117E+00  0.284051118746E+00  0.293119829766E+00
  0.302466644293E+00  0.312098936671E+00  0.322024156792E+00  0.332249816675E+00  0.342783475128E+00
  0.353632720286E+00  0.364805149837E+00  0.376308348689E+00  0.388149863858E+00  0.400337176285E+00
  0.412877669330E+00  0.425778593618E+00  0.439047027918E+00  0.452689835719E+00  0.466713617115E+00
  0.481124655629E+00  0.495928859546E+00  0.511131697337E+00  0.526738126700E+00  0.542752516768E+00
  0.559178562982E+00  0.576019194132E+00  0.593276471053E+00  0.610951476486E+00  0.629044195575E+00
  0.647553386526E+00  0.666476440959E+00  0.685809233541E+00  0.705545960508E+00  0.725678966812E+00
  0.746198561674E+00  0.767092822489E+00  0.788347387158E+00  0.809945235139E+00  0.831866457709E+00
  0.854088018257E+00  0.876583503708E+00  0.899322868625E+00  0.922272173958E+00  0.945393322963E+00
  0.968643797418E+00  0.991976397975E+00  0.101533899325E+01  0.103867428313E+01  0.106191958281E+01
  0.108500663500E+01  0.110786145897E+01  0.113040424626E+01  0.115254931411E+01  0.117420512884E+01
  0.119527441271E+01  0.121565434853E+01  0.123523689767E+01  0.125390924704E+01  0.127155440116E+01
  0.128805193467E+01  0.130327891930E+01  0.131711103697E+01  0.132942388676E+01  0.134009448824E+01
  0.134900297587E+01  0.135603446974E+01  0.136108109471E+01  0.136404410461E+01  0.136483604857E+01
  0.136338289335E+01  0.135962598892E+01  0.135352373372E+01  0.134505276258E+01  0.133420844454E+01
  0.132100444233E+01  0.130547105119E+01  0.128765200798E+01  0.126759944459E+01  0.124536666154E+01
  0.122099842404E+01  0.119451854621E+01  0.116591463818E+01  0.113513192330E+01  0.110229857880E+01
  0.106760690010E+01  0.103126913596E+01  0.993503299095E+00  0.954531322759E+00  0.914577214133E+00
  0.873865220765E+00  0.832618025861E+00  0.791054985306E+00  0.749390419008E+00  0.707831968468E+00
  0.666579032406E+00  0.625821292906E+00  0.585737345768E+00  0.546493450360E+00  0.508242416091E+00
  0.471122643995E+00  0.435257342396E+00  0.400753934854E+00  0.367703675592E+00  0.336181483422E+00
  0.306245998609E+00  0.277939859932E+00  0.251290191405E+00  0.226309280801E+00  0.202995425930E+00
  0.181333920127E+00  0.161298145904E+00  0.142850745176E+00  0.125944835868E+00  0.110525247568E+00
  0.965297529287E-01  0.838902762044E-01  0.725340650868E-01  0.623848164471E-01  0.533637501515E-01
  0.453906274884E-01  0.383847117693E-01  0.322656684233E-01  0.269544007442E-01  0.223738158529E-01
  0.184495139807E-01  0.151103933442E-01  0.122891629950E-01  0.992275720427E-02  0.795264707957E-02
  0.632504796918E-02  0.499102444840E-02  0.390649795968E-02  0.303216518261E-02  0.233333770436E-02
  0.177971539391E-02  0.134510698519E-02  0.100711174732E-02  0.746775825065E-03  0.548235966487E-03
  0.398362041931E-03  0.286408129355E-03  0.203680128568E-03  0.143225991394E-03  0.995528223194E-04
  0.683734004099E-04  0.463831621932E-04
 ae wavefunction
 -0.779383096830E-03 -0.804670313270E-03 -0.830777582198E-03 -0.857731471993E-03 -0.885559410156E-03
 -0.914289710917E-03 -0.943951603903E-03 -0.974575263506E-03 -0.100619183930E-02 -0.103883348745E-02
 -0.107253340301E-02 -0.110732585339E-02 -0.114324621276E-02 -0.118033099764E-02 -0.121861790359E-02
 -0.125814584301E-02 -0.129895498426E-02 -0.134108679191E-02 -0.138458406830E-02 -0.142949099646E-02
 -0.147585318430E-02 -0.152371771029E-02 -0.157313317051E-02 -0.162414972725E-02 -0.167681915906E-02
 -0.173119491243E-02 -0.178733215513E-02 -0.184528783112E-02 -0.190512071730E-02 -0.196689148194E-02
 -0.203066274502E-02 -0.209649914040E-02 -0.216446737996E-02 -0.223463631973E-02 -0.230707702809E-02
 -0.238186285607E-02 -0.245906950987E-02 -0.253877512557E-02 -0.262106034627E-02 -0.270600840140E-02
 -0.279370518875E-02 -0.288423935877E-02 -0.297770240172E-02 -0.307418873718E-02 -0.317379580664E-02
 -0.327662416861E-02 -0.338277759695E-02 -0.349236318182E-02 -0.360549143407E-02 -0.372227639252E-02
 -0.384283573458E-02 -0.396729089028E-02 -0.409576715955E-02 -0.422839383321E-02 -0.436530431744E-02
 -0.450663626198E-02 -0.465253169225E-02 -0.480313714520E-02 -0.495860380933E-02 -0.511908766876E-02
 -0.528474965151E-02 -0.545575578215E-02 -0.563227733885E-02 -0.581449101505E-02 -0.600257908564E-02
 -0.619672957814E-02 -0.639713644856E-02 -0.660399976236E-02 -0.681752588056E-02 -0.703792765101E-02
 -0.726542460506E-02 -0.750024315978E-02 -0.774261682538E-02 -0.799278641926E-02 -0.825100028454E-02
 -0.851751451588E-02 -0.879259319033E-02 -0.907650860516E-02 -0.936954152124E-02 -0.967198141353E-02
 -0.998412672745E-02 -0.103062851425E-01 -0.106387738418E-01 -0.109819197897E-01 -0.113360600146E-01
 -0.117015419006E-01 -0.120787234848E-01 -0.124679737626E-01 -0.128696730002E-01 -0.132842130537E-01
 -0.137119976969E-01 -0.141534429550E-01 -0.146089774467E-01 -0.150790427338E-01 -0.155640936780E-01
 -0.160645988047E-01 -0.165810406757E-01 -0.171139162676E-01 -0.176637373588E-01 -0.182310309232E-01
 -0.188163395317E-01 -0.194202217597E-01 -0.200432526026E-01 -0.206860238975E-01 -0.213491447517E-01
 -0.220332419769E-01 -0.227389605305E-01 -0.234669639613E-01 -0.242179348617E-01 -0.249925753241E-01
 -0.257916074021E-01 -0.266157735754E-01 -0.274658372185E-01 -0.283425830720E-01 -0.292468177161E-01
 -0.301793700449E-01 -0.311410917422E-01 -0.321328577566E-01 -0.331555667740E-01 -0.342101416900E-01
 -0.352975300764E-01 -0.364187046442E-01 -0.375746636995E-01 -0.387664315921E-01 -0.399950591543E-01
 -0.412616241284E-01 -0.425672315815E-01 -0.439130143044E-01 -0.453001331937E-01 -0.467297776135E-01
 -0.482031657353E-01 -0.497215448519E-01 -0.512861916636E-01 -0.528984125333E-01 -0.545595437062E-01
 -0.562709514913E-01 -0.580340324005E-01 -0.598502132415E-01 -0.617209511588E-01 -0.636477336197E-01
 -0.656320783391E-01 -0.676755331376E-01 -0.697796757281E-01 -0.719461134235E-01 -0.741764827598E-01
 -0.764724490276E-01 -0.788357057041E-01 -0.812679737782E-01 -0.837710009598E-01 -0.863465607666E-01
 -0.889964514752E-01 -0.917224949305E-01 -0.945265352010E-01 -0.974104370693E-01 -0.100376084346E+00
 -0.103425377998E+00 -0.106560234069E+00 -0.109782581393E+00 -0.113094359073E+00 -0.116497513719E+00
 -0.119993996425E+00 -0.123585759471E+00 -0.127274752728E+00 -0.131062919760E+00 -0.134952193590E+00
 -0.138944492115E+00 -0.143041713160E+00 -0.147245729132E+00 -0.151558381270E+00 -0.155981473453E+00
 -0.160516765554E+00 -0.165165966306E+00 -0.169930725670E+00 -0.174812626661E+00 -0.179813176615E+00
 -0.184933797877E+00 -0.190175817867E+00 -0.195540458509E+00 -0.201028824989E+00 -0.206641893818E+00
 -0.212380500161E+00 -0.218245324419E+00 -0.224236878021E+00 -0.230355488408E+00 -0.236601283177E+00
 -0.242974173355E+00 -0.249473835785E+00 -0.256099694593E+00 -0.262850901717E+00 -0.269726316470E+00
 -0.276724484129E+00 -0.283843613524E+00 -0.291081553615E+00 -0.298435769056E+00 -0.305903314724E+00
 -0.313480809235E+00 -0.321164407423E+00 -0.328949771820E+00 -0.336832043128E+00 -0.344805809729E+00
 -0.352865076246E+00 -0.361003231209E+00 -0.369213013870E+00 -0.377486480222E+00 -0.385814968310E+00
 -0.394189062896E+00 -0.402598559602E+00 -0.411032428616E+00 -0.419478778114E+00 -0.427924817522E+00
 -0.436356820792E+00 -0.444760089875E+00 -0.453118918580E+00 -0.461416557052E+00 -0.469635177111E+00
 -0.477755838715E+00 -0.485758457848E+00 -0.493621776132E+00 -0.501323332532E+00 -0.508839437498E+00
 -0.516145149957E+00 -0.523214257570E+00 -0.530019260710E+00 -0.536531360649E+00 -0.542720452445E+00
 -0.548555123086E+00 -0.554002655441E+00 -0.559029038607E+00 -0.563598985285E+00 -0.567675956795E+00
 -0.571222196417E+00 -0.574198771715E+00 -0.576565626551E+00 -0.578281643483E+00 -0.579304717274E+00
 -0.579591840212E+00 -0.579099199957E+00 -0.577782290626E+00 -0.575596037785E+00 -0.572494938013E+00
 -0.568433213657E+00 -0.563364983350E+00 -0.557244448807E+00 -0.550026098335E+00 -0.541664927408E+00
 -0.532116676553E+00 -0.521338086673E+00 -0.509287171770E+00 -0.495923508899E+00 -0.481208544969E+00
 -0.465105919826E+00 -0.447581804800E+00 -0.428605255678E+00 -0.408148578774E+00 -0.386187708515E+00
 -0.362702594667E+00 -0.337677597032E+00 -0.311101885188E+00 -0.282969840575E+00 -0.253281457993E+00
 -0.222042743363E+00 -0.189266104438E+00 -0.154970730930E+00 -0.119182960373E+00 -0.819366257340E-01
 -0.432733803740E-01 -0.324299526114E-02  0.380963777821E-01  0.806779847713E-01  0.124426300736E+00
  0.169256927446E+00  0.215076576009E+00  0.261783156656E+00  0.309265999113E+00  0.357406220225E+00
  0.406077233602E+00  0.455145353177E+00  0.504470382160E+00  0.553906025226E+00  0.603299960651E+00
  0.652493504912E+00  0.701320994811E+00  0.749609227247E+00  0.797177405054E+00  0.843837926086E+00
  0.889398036376E+00  0.933662033103E+00  0.976433577202E+00  0.101751780441E+01  0.105672315209E+01
  0.109386297676E+01  0.112875707981E+01  0.116123322695E+01  0.119112869719E+01  0.121829185600E+01
  0.124258372263E+01  0.126387949111E+01  0.128206996291E+01  0.129706285368E+01  0.130878394245E+01
  0.131717803933E+01  0.132220975329E+01  0.132386404753E+01  0.132214657491E+01  0.131708378883E+01
  0.130872283090E+01  0.129713119683E+01  0.128239618933E+01  0.126462416547E+01  0.124393959313E+01
  0.122048392924E+01  0.119441433899E+01  0.116590227297E+01  0.113513192330E+01  0.110229857880E+01
  0.106760690010E+01  0.103126913596E+01  0.993503299095E+00  0.954531322759E+00  0.914577214133E+00
  0.873865220765E+00  0.832618025861E+00  0.791054985306E+00  0.749390419008E+00  0.707831968468E+00
  0.666579032406E+00  0.625821292906E+00  0.585737345768E+00  0.546493450360E+00  0.508242416091E+00
  0.471122643995E+00  0.435257342396E+00  0.400753934854E+00  0.367703675592E+00  0.336181483422E+00
  0.306245998609E+00  0.277939859932E+00  0.251290191405E+00  0.226309280801E+00  0.202995425930E+00
  0.181333920127E+00  0.161298145904E+00  0.142850745176E+00  0.125944835868E+00  0.110525247568E+00
  0.965297529287E-01  0.838902762044E-01  0.725340650868E-01  0.623848164471E-01  0.533637501515E-01
  0.453906274884E-01  0.383847117693E-01  0.322656684233E-01  0.269544007442E-01  0.223738158529E-01
  0.184495139807E-01  0.151103933442E-01  0.122891629950E-01  0.992275720427E-02  0.795264707957E-02
  0.632504796918E-02  0.499102444840E-02  0.390649795968E-02  0.303216518261E-02  0.233333770436E-02
  0.177971539391E-02  0.134510698519E-02  0.100711174732E-02  0.746775825065E-03  0.548235966487E-03
  0.398362041931E-03  0.286408129355E-03  0.203680128568E-03  0.143225991394E-03  0.995528223194E-04
  0.683734004099E-04  0.463831621932E-04
 pseudo wavefunction
 -0.222385446234E-03 -0.229616866114E-03 -0.237083433723E-03 -0.244792795479E-03 -0.252752846441E-03
 -0.260971738396E-03 -0.269457888206E-03 -0.278219986430E-03 -0.287267006221E-03 -0.296608212516E-03
 -0.306253171527E-03 -0.316211760531E-03 -0.326494177994E-03 -0.337110954007E-03 -0.348072961076E-03
 -0.359391425250E-03 -0.371077937625E-03 -0.383144466208E-03 -0.395603368175E-03 -0.408467402529E-03
 -0.421749743161E-03 -0.435463992344E-03 -0.449624194666E-03 -0.464244851405E-03 -0.479340935387E-03
 -0.494927906317E-03 -0.511021726608E-03 -0.527638877732E-03 -0.544796377098E-03 -0.562511795476E-03
 -0.580803274993E-03 -0.599689547715E-03 -0.619189954825E-03 -0.639324466431E-03 -0.660113702021E-03
 -0.681578951575E-03 -0.703742197369E-03 -0.726626136486E-03 -0.750254204062E-03 -0.774650597283E-03
 -0.799840300164E-03 -0.825849109138E-03 -0.852703659471E-03 -0.880431452539E-03 -0.909060883994E-03
 -0.938621272838E-03 -0.969142891453E-03 -0.100065699660E-02 -0.103319586143E-02 -0.106679280853E-02
 -0.110148224405E-02 -0.113729969294E-02 -0.117428183533E-02 -0.121246654408E-02 -0.125189292359E-02
 -0.129260134982E-02 -0.133463351166E-02 -0.137803245360E-02 -0.142284261981E-02 -0.146910989970E-02
 -0.151688167484E-02 -0.156620686754E-02 -0.161713599092E-02 -0.166972120065E-02 -0.172401634837E-02
 -0.178007703679E-02 -0.183796067669E-02 -0.189772654569E-02 -0.195943584892E-02 -0.202315178175E-02
 -0.208893959446E-02 -0.215686665908E-02 -0.222700253838E-02 -0.229941905710E-02 -0.237419037551E-02
 -0.245139306531E-02 -0.253110618812E-02 -0.261341137636E-02 -0.269839291686E-02 -0.278613783723E-02
 -0.287673599488E-02 -0.297028016910E-02 -0.306686615605E-02 -0.316659286684E-02 -0.326956242881E-02
 -0.337588029012E-02 -0.348565532769E-02 -0.359899995874E-02 -0.371603025584E-02 -0.383686606577E-02
 -0.396163113225E-02 -0.409045322265E-02 -0.422346425875E-02 -0.436080045188E-02 -0.450260244231E-02
 -0.464901544330E-02 -0.480018938974E-02 -0.495627909167E-02 -0.511744439274E-02 -0.528385033389E-02
 -0.545566732225E-02 -0.563307130568E-02 -0.581624395277E-02 -0.600537283889E-02 -0.620065163818E-02
 -0.640228032175E-02 -0.661046536243E-02 -0.682541994604E-02 -0.704736418961E-02 -0.727652536669E-02
 -0.751313813986E-02 -0.775744480096E-02 -0.800969551898E-02 -0.827014859607E-02 -0.853907073184E-02
 -0.881673729621E-02 -0.910343261115E-02 -0.939945024157E-02 -0.970509329558E-02 -0.100206747346E-01
 -0.103465176933E-01 -0.106829558103E-01 -0.110303335692E-01 -0.113890066508E-01 -0.117593422970E-01
 -0.121417196858E-01 -0.125365303194E-01 -0.129441784238E-01 -0.133650813625E-01 -0.137996700624E-01
 -0.142483894542E-01 -0.147116989274E-01 -0.151900727986E-01 -0.156840007965E-01 -0.161939885616E-01
 -0.167205581624E-01 -0.172642486282E-01 -0.178256164989E-01 -0.184052363927E-01 -0.190037015923E-01
 -0.196216246493E-01 -0.202596380090E-01 -0.209183946541E-01 -0.215985687704E-01 -0.223008564326E-01
 -0.230259763131E-01 -0.237746704130E-01 -0.245477048163E-01 -0.253458704688E-01 -0.261699839814E-01
 -0.270208884595E-01 -0.278994543580E-01 -0.288065803642E-01 -0.297431943088E-01 -0.307102541051E-01
 -0.317087487187E-01 -0.327396991673E-01 -0.338041595521E-01 -0.349032181223E-01 -0.360379983718E-01
 -0.372096601714E-01 -0.384194009359E-01 -0.396684568275E-01 -0.409581039967E-01 -0.422896598616E-01
 -0.436644844267E-01 -0.450839816422E-01 -0.465496008052E-01 -0.480628380030E-01 -0.496252376012E-01
 -0.512383937757E-01 -0.529039520917E-01 -0.546236111292E-01 -0.563991241571E-01 -0.582323008571E-01
 -0.601250090971E-01 -0.620791767575E-01 -0.640967936089E-01 -0.661799132447E-01 -0.683306550676E-01
 -0.705512063320E-01 -0.728438242434E-01 -0.752108381146E-01 -0.776546515807E-01 -0.801777448727E-01
 -0.827826771511E-01 -0.854720888989E-01 -0.882487043754E-01 -0.911153341308E-01 -0.940748775813E-01
 -0.971303256444E-01 -0.100284763435E+00 -0.103541373020E+00 -0.106903436234E+00 -0.110374337549E+00
 -0.113957567004E+00 -0.117656723183E+00 -0.121475516253E+00 -0.125417771043E+00 -0.129487430174E+00
 -0.133688557224E+00 -0.138025339939E+00 -0.142502093467E+00 -0.147123263622E+00 -0.151893430164E+00
 -0.156817310089E+00 -0.161899760922E+00 -0.167145783995E+00 -0.172560527708E+00 -0.178149290752E+00
 -0.183917525279E+00 -0.189870840013E+00 -0.196015003263E+00 -0.202355945834E+00 -0.208899763809E+00
 -0.215652721164E+00 -0.222621252204E+00 -0.229811963768E+00 -0.237231637187E+00 -0.244887229938E+00
 -0.252785876950E+00 -0.260934891530E+00 -0.269341765826E+00 -0.278014170792E+00 -0.286959955573E+00
 -0.296187146239E+00 -0.305703943787E+00 -0.315518721322E+00 -0.325640020321E+00 -0.336076545858E+00
 -0.346837160696E+00 -0.357930878082E+00 -0.369366853134E+00 -0.381154372644E+00 -0.393302843124E+00
 -0.405821776925E+00 -0.418720776205E+00 -0.432009514532E+00 -0.445697715880E+00 -0.459795130755E+00
 -0.474311509152E+00 -0.489256570053E+00 -0.504639967105E+00 -0.520471250141E+00 -0.536759822120E+00
 -0.553514891091E+00 -0.570745416712E+00 -0.588460050831E+00 -0.606667071625E+00 -0.625374310723E+00
 -0.644589072731E+00 -0.664318046525E+00 -0.684567207662E+00 -0.705341711196E+00 -0.726645774188E+00
 -0.748482547143E+00 -0.770853973597E+00 -0.793760637052E+00 -0.817201594455E+00 -0.841174195390E+00
 -0.865673886195E+00 -0.890693998209E+00 -0.916225519411E+00 -0.942256848777E+00 -0.968773532748E+00
 -0.995757983349E+00 -0.102318917762E+01 -0.105104233823E+01 -0.107928859541E+01 -0.110789463056E+01
 -0.113682230233E+01 -0.116602825637E+01 -0.119546352043E+01 -0.122507308706E+01 -0.125479548701E+01
 -0.128456235701E+01 -0.131429800662E+01 -0.134391898995E+01 -0.137333368893E+01 -0.140244191650E+01
 -0.143113454891E+01 -0.145929319829E+01 -0.148678993802E+01 -0.151348709478E+01 -0.153923712331E+01
 -0.156388258083E+01 -0.158725621994E+01 -0.160918121978E+01 -0.162947157581E+01 -0.164793266924E+01
 -0.166436203590E+01 -0.167855035363E+01 -0.169028266361E+01 -0.169933983724E+01 -0.170550029365E+01
 -0.170854196412E+01 -0.170824448870E+01 -0.170439161572E+01 -0.169677375738E+01 -0.168519063354E+01
 -0.166945391136E+01 -0.164938972057E+01 -0.162484089453E+01 -0.159566875580E+01 -0.156175423470E+01
 -0.152299808336E+01 -0.147931992846E+01 -0.143065590122E+01 -0.137695459756E+01 -0.131817116430E+01
 -0.125425938934E+01 -0.118516180381E+01 -0.111079799695E+01 -0.103107310382E+01 -0.946044623512E+00
 -0.855863729070E+00 -0.760686739008E+00 -0.660670896630E+00 -0.555970629475E+00 -0.446733524925E+00
 -0.333095998077E+00 -0.215178625328E+00 -0.930811030227E-01  0.331232079460E-01  0.000000000000E+00
  0.000000000000E+00  0.000000000000E+00  0.000000000000E+00  0.000000000000E+00  0.000000000000E+00
  0.000000000000E+00  0.000000000000E+00  0.000000000000E+00  0.000000000000E+00  0.000000000000E+00
  0.000000000000E+00  0.000000000000E+00  0.000000000000E+00  0.000000000000E+00  0.000000000000E+00
  0.000000000000E+00  0.000000000000E+00  0.000000000000E+00  0.000000000000E+00  0.000000000000E+00
  0.000000000000E+00  0.000000000000E+00  0.000000000000E+00  0.000000000000E+00  0.000000000000E+00
  0.000000000000E+00  0.000000000000E+00  0.000000000000E+00  0.000000000000E+00  0.000000000000E+00
  0.000000000000E+00  0.000000000000E+00  0.000000000000E+00  0.000000000000E+00  0.000000000000E+00
  0.000000000000E+00  0.000000000000E+00  0.000000000000E+00  0.000000000000E+00  0.000000000000E+00
  0.000000000000E+00  0.000000000000E+00  0.000000000000E+00  0.000000000000E+00  0.000000000000E+00
  0.000000000000E+00  0.000000000000E+00  0.000000000000E+00  0.000000000000E+00  0.000000000000E+00
  0.000000000000E+00  0.000000000000E+00
 ae wavefunction
  0.102279809809E-02  0.105598295520E-02  0.109024398153E-02  0.112561604322E-02  0.116213513385E-02
  0.119983841069E-02  0.123876423228E-02  0.127895219700E-02  0.132044318298E-02  0.136327938930E-02
  0.140750437843E-02  0.145316312007E-02  0.150030203637E-02  0.154896904858E-02  0.159921362524E-02
  0.165108683177E-02  0.170464138181E-02  0.175993169002E-02  0.181701392666E-02  0.187594607387E-02
  0.193678798372E-02  0.199960143809E-02  0.206445021046E-02  0.213140012966E-02  0.220051914556E-02
  0.227187739694E-02  0.234554728140E-02  0.242160352748E-02  0.250012326910E-02  0.258118612230E-02
  0.266487426433E-02  0.275127251532E-02  0.284046842242E-02  0.293255234656E-02  0.302761755200E-02
  0.312576029854E-02  0.322707993673E-02  0.333167900586E-02  0.343966333524E-02  0.355114214828E-02
  0.366622817008E-02  0.378503773816E-02  0.390769091669E-02  0.403431161410E-02  0.416502770449E-02
  0.429997115249E-02  0.443927814225E-02  0.458308921001E-02  0.473154938098E-02  0.488480831019E-02
  0.504302042768E-02  0.520634508806E-02  0.537494672452E-02  0.554899500752E-02  0.572866500817E-02
  0.591413736647E-02  0.610559846469E-02  0.630324060565E-02  0.650726219645E-02  0.671786793755E-02
  0.693526901738E-02  0.715968331261E-02  0.739133559430E-02  0.763045774002E-02  0.787728895198E-02
  0.813207598160E-02  0.839507336033E-02  0.866654363718E-02  0.894675762282E-02  0.923599464071E-02
  0.953454278511E-02  0.984269918650E-02  0.101607702838E-01  0.104890721050E-01  0.108279305546E-01
  0.111776817090E-01  0.115386721204E-01  0.119112591282E-01  0.122958111786E-01  0.126927081535E-01
  0.131023417068E-01  0.135251156102E-01  0.139614461072E-01  0.144117622770E-01  0.148765064061E-01
  0.153561343706E-01  0.158511160267E-01  0.163619356112E-01  0.168890921513E-01  0.174330998841E-01
  0.179944886854E-01  0.185738045092E-01  0.191716098356E-01  0.197884841298E-01  0.204250243101E-01
  0.210818452261E-01  0.217595801464E-01  0.224588812564E-01  0.231804201655E-01  0.239248884241E-01
  0.246929980494E-01  0.254854820617E-01  0.263030950283E-01  0.271466136176E-01  0.280168371606E-01
  0.289145882217E-01  0.298407131766E-01  0.307960827979E-01  0.317815928479E-01  0.327981646776E-01
  0.338467458320E-01  0.349283106597E-01  0.360438609282E-01  0.371944264416E-01  0.383810656625E-01
  0.396048663337E-01  0.408669461028E-01  0.421684531445E-01  0.435105667818E-01  0.448944981041E-01
  0.463214905805E-01  0.477928206656E-01  0.493097983984E-01  0.508737679901E-01  0.524861083994E-01
  0.541482338933E-01  0.558615945904E-01  0.576276769837E-01  0.594480044421E-01  0.613241376830E-01
  0.632576752182E-01  0.652502537650E-01  0.673035486205E-01  0.694192739947E-01  0.715991832983E-01
  0.738450693790E-01  0.761587647029E-01  0.785421414739E-01  0.809971116867E-01  0.835256271057E-01
  0.861296791639E-01  0.888112987751E-01  0.915725560499E-01  0.944155599104E-01  0.973424575918E-01
  0.100355434023E+00  0.103456711081E+00  0.106648546694E+00  0.109933233808E+00  0.113313099176E+00
  0.116790501978E+00  0.120367832256E+00  0.124047509137E+00  0.127831978849E+00  0.131723712499E+00
  0.135725203604E+00  0.139838965360E+00  0.144067527627E+00  0.148413433607E+00  0.152879236211E+00
  0.157467494072E+00  0.162180767208E+00  0.167021612289E+00  0.171992577494E+00  0.177096196945E+00
  0.182334984667E+00  0.187711428068E+00  0.193227980906E+00  0.198887055710E+00  0.204691015624E+00
  0.210642165658E+00  0.216742743283E+00  0.222994908383E+00  0.229400732476E+00  0.235962187219E+00
  0.242681132128E+00  0.249559301490E+00  0.256598290434E+00  0.263799540106E+00  0.271164321938E+00
  0.278693720943E+00  0.286388618021E+00  0.294249671227E+00  0.302277295961E+00  0.310471644060E+00
  0.318832581732E+00  0.327359666313E+00  0.336052121816E+00  0.344908813228E+00  0.353928219539E+00
  0.363108405469E+00  0.372446991877E+00  0.381941124822E+00  0.391587443286E+00  0.401382045521E+00
  0.411320454040E+00  0.421397579240E+00  0.431607681692E+00  0.441944333084E+00  0.452400375883E+00
  0.462967881734E+00  0.473638108645E+00  0.484401457046E+00  0.495247424776E+00  0.506164561101E+00
  0.517140419877E+00  0.528161511977E+00  0.539213257133E+00  0.550279935369E+00  0.561344638190E+00
  0.572389219769E+00  0.583394248351E+00  0.594338958144E+00  0.605201201989E+00  0.615957405133E+00
  0.626582520456E+00  0.637049985538E+00  0.647331681984E+00  0.657397897460E+00  0.667217290939E+00
  0.676756861667E+00  0.685981922433E+00  0.694856077724E+00  0.703341207433E+00  0.711397456773E+00
  0.718983233132E+00  0.726055210628E+00  0.732568343138E+00  0.738475886653E+00  0.743729431805E+00
  0.748278947468E+00  0.752072836348E+00  0.755058003510E+00  0.757179938808E+00  0.758382814205E+00
  0.758609596944E+00  0.757802179597E+00  0.755901527939E+00  0.752847847632E+00  0.748580770638E+00
  0.743039562271E+00  0.736163349711E+00  0.727891372762E+00  0.718163257516E+00  0.706919313515E+00
  0.694100854817E+00  0.679650545295E+00  0.663512768224E+00  0.645634020102E+00  0.625963328327E+00
  0.604452692158E+00  0.581057546056E+00  0.555737244197E+00  0.528455564603E+00  0.499181230994E+00
  0.467888450073E+00  0.434557461595E+00  0.399175098222E+00  0.361735351798E+00  0.322239942381E+00
  0.280698886080E+00  0.237131057493E+00  0.191564742273E+00  0.144038175094E+00  0.946000578769E-01
  0.433100525371E-01 -0.976075846020E-02 -0.645294519957E-01 -0.120900895309E+00 -0.178767442271E+00
 -0.238008713798E+00 -0.298491486962E+00 -0.360069722585E+00 -0.422584762374E+00 -0.485865717301E+00
 -0.549730039385E+00 -0.613984211611E+00 -0.678424410654E+00 -0.742836927154E+00 -0.806998129501E+00
 -0.870673887741E+00 -0.933618631919E+00 -0.995574503552E+00 -0.105627119755E+01 -0.111542693760E+01
 -0.117275060413E+01 -0.122794459101E+01 -0.128070780614E+01 -0.133073840736E+01 -0.137773617010E+01
 -0.142140459039E+01 -0.146145288072E+01 -0.149759797215E+01 -0.152956656886E+01 -0.155709724668E+01
 -0.157994255458E+01 -0.159787106413E+01 -0.161066931010E+01 -0.161814357131E+01 -0.162012144802E+01
 -0.161645320252E+01 -0.160701283604E+01 -0.159169888236E+01 -0.157043490486E+01 -0.154316968632E+01
 -0.150987710849E+01 -0.147055571707E+01 -0.142522797707E+01 -0.137393922012E+01 -0.131675629362E+01
 -0.125376591776E+01 -0.118507276225E+01 -0.111079725090E+01 -0.103107310382E+01 -0.946044623512E+00
 -0.855863729070E+00 -0.760686739008E+00 -0.660670896630E+00 -0.555970629475E+00 -0.446733524925E+00
 -0.333095998077E+00 -0.215178625328E+00 -0.930811030227E-01  0.331232079460E-01  0.000000000000E+00
  0.000000000000E+00  0.000000000000E+00  0.000000000000E+00  0.000000000000E+00  0.000000000000E+00
  0.000000000000E+00  0.000000000000E+00  0.000000000000E+00  0.000000000000E+00  0.000000000000E+00
  0.000000000000E+00  0.000000000000E+00  0.000000000000E+00  0.000000000000E+00  0.000000000000E+00
  0.000000000000E+00  0.000000000000E+00  0.000000000000E+00  0.000000000000E+00  0.000000000000E+00
  0.000000000000E+00  0.000000000000E+00  0.000000000000E+00  0.000000000000E+00  0.000000000000E+00
  0.000000000000E+00  0.000000000000E+00  0.000000000000E+00  0.000000000000E+00  0.000000000000E+00
  0.000000000000E+00  0.000000000000E+00  0.000000000000E+00  0.000000000000E+00  0.000000000000E+00
  0.000000000000E+00  0.000000000000E+00  0.000000000000E+00  0.000000000000E+00  0.000000000000E+00
  0.000000000000E+00  0.000000000000E+00  0.000000000000E+00  0.000000000000E+00  0.000000000000E+00
  0.000000000000E+00  0.000000000000E+00  0.000000000000E+00  0.000000000000E+00  0.000000000000E+00
  0.000000000000E+00  0.000000000000E+00
 pseudo wavefunction
  0.876800944011E-08  0.934750821447E-08  0.996530745264E-08  0.106239385241E-07  0.113261001027E-07
  0.120746692239E-07  0.128727130735E-07  0.137235015550E-07  0.146305206876E-07  0.155974868896E-07
  0.166283622068E-07  0.177273705456E-07  0.188990149810E-07  0.201480962064E-07  0.214797322051E-07
  0.228993792199E-07  0.244128541097E-07  0.260263581836E-07  0.277465026102E-07  0.295803355059E-07
  0.315353708140E-07  0.336196190923E-07  0.358416203355E-07  0.382104789672E-07  0.407359011437E-07
  0.434282345249E-07  0.462985106719E-07  0.493584902482E-07  0.526207112076E-07  0.560985401672E-07
  0.598062271759E-07  0.637589641022E-07  0.679729468815E-07  0.724654418773E-07  0.772548566282E-07
  0.823608152708E-07  0.878042389479E-07  0.936074315303E-07  0.997941710050E-07  0.106389806902E-06
  0.113421364164E-06  0.120917653873E-06  0.128909391308E-06  0.137429321791E-06  0.146512354860E-06
  0.156195707309E-06  0.166519055677E-06  0.177524698819E-06  0.189257731222E-06  0.201766227775E-06
  0.215101440749E-06  0.229318009799E-06  0.244474185843E-06  0.260632069739E-06  0.277857866739E-06
  0.296222157754E-06  0.315800188551E-06  0.336672178071E-06  0.358923647107E-06  0.382645768724E-06
  0.407935741827E-06  0.434897189421E-06  0.463640583198E-06  0.494283696178E-06  0.526952085273E-06
  0.561779605740E-06  0.598908959638E-06  0.638492280532E-06  0.680691756840E-06  0.725680296386E-06
  0.773642234858E-06  0.824774091112E-06  0.879285372373E-06  0.937399432670E-06  0.999354387998E-06
  0.106540409197E-05  0.113581917593E-05  0.121088815785E-05  0.129091862451E-05  0.137623849171E-05
  0.146719734796E-05  0.156416788680E-05  0.166754743388E-05  0.177775957492E-05  0.189525589134E-05
  0.202051781045E-05  0.215405857812E-05  0.229642536164E-05  0.244820149169E-05  0.261000885240E-05
  0.278251042944E-05  0.296641302644E-05  0.316247016102E-05  0.337148515214E-05  0.359431441156E-05
  0.383187095279E-05  0.408512813195E-05  0.435512363590E-05  0.464296373389E-05  0.494982781024E-05
  0.527697319654E-05  0.562574032326E-05  0.599755821177E-05  0.639395032933E-05  0.681654083108E-05
  0.726706121445E-05  0.774735741341E-05  0.825939736158E-05  0.880527905509E-05  0.938723914832E-05
  0.100076621177E-04  0.106690900313E-04  0.113742329633E-04  0.121259800981E-04  0.129274115664E-04
  0.137818110654E-04  0.146926793112E-04  0.156637483817E-04  0.166989970060E-04  0.178026668649E-04
  0.189792799686E-04  0.202336571823E-04  0.215709379761E-04  0.229966014801E-04  0.245164889303E-04
  0.261368275985E-04  0.278642563022E-04  0.297058526010E-04  0.316691617896E-04  0.337622278059E-04
  0.359936261822E-04  0.383724991726E-04  0.409085932015E-04  0.436122987857E-04  0.464946930946E-04
  0.495675853214E-04  0.528435650517E-04  0.563360538268E-04  0.600593601135E-04  0.640287379045E-04
  0.682604491895E-04  0.727718305516E-04  0.775813641627E-04  0.827087534671E-04  0.881750038632E-04
  0.940025087122E-04  0.100215141027E-03  0.106838351212E-03  0.113899271262E-03  0.121426825831E-03
  0.129451850639E-03  0.138007218693E-03  0.147127974839E-03  0.156851479188E-03  0.167217560013E-03
  0.178268676735E-03  0.190050093652E-03  0.202610065133E-03  0.216000033036E-03  0.230274837125E-03
  0.245492939378E-03  0.261716663077E-03  0.279012447654E-03  0.297451120339E-03  0.317108185698E-03
  0.338064134258E-03  0.360404771445E-03  0.384221568189E-03  0.409612034611E-03  0.436680118300E-03
  0.465536628795E-03  0.496299689994E-03  0.529095222301E-03  0.564057456473E-03  0.601329481228E-03
  0.641063826829E-03  0.683423086966E-03  0.728580581473E-03  0.776721062500E-03  0.828041466988E-03
  0.882751718458E-03  0.941075581300E-03  0.100325157099E-02  0.106953392380E-02  0.114019362999E-02
  0.121551953433E-02  0.129581950858E-02  0.138142170037E-02  0.147267586342E-02  0.156995477434E-02
  0.167365574160E-02  0.178420221244E-02  0.190204548403E-02  0.202766652548E-02  0.216157791777E-02
  0.230432591894E-02  0.245649266256E-02  0.261869849773E-02  0.279160447948E-02  0.297591501904E-02
  0.317238070372E-02  0.338180129699E-02  0.360502892978E-02  0.384297149468E-02  0.409659625537E-02
  0.436693368430E-02  0.465508154220E-02  0.496220921392E-02  0.528956231568E-02  0.563846758961E-02
  0.601033810226E-02  0.640667876444E-02  0.682909219080E-02  0.727928491799E-02  0.775907400132E-02
  0.827039401059E-02  0.881530444640E-02  0.939599759912E-02  0.100148068734E-01  0.106742156015E-01
  0.113768663702E-01  0.121255708846E-01  0.129233203949E-01  0.137732967111E-01  0.146788838304E-01
  0.156436802026E-01  0.166715116586E-01  0.177664450254E-01  0.189328024512E-01  0.201751764616E-01
  0.214984457673E-01  0.229077918395E-01  0.244087162683E-01  0.260070589136E-01  0.277090168538E-01
  0.295211641335E-01  0.314504723011E-01  0.335043317241E-01  0.356905736540E-01  0.380174930081E-01
  0.404938718165E-01  0.431290032710E-01  0.459327162930E-01  0.489154005177E-01  0.520880315669E-01
  0.554621964571E-01  0.590501189569E-01  0.628646846736E-01  0.669194656068E-01  0.712287438610E-01
  0.758075341598E-01  0.806716047425E-01  0.858374961587E-01  0.913225374051E-01  0.971448587634E-01
  0.103323400607E+00  0.109877917345E+00  0.116828975553E+00  0.124197945226E+00  0.132006982940E+00
  0.140279005578E+00  0.149037653088E+00  0.158307238608E+00  0.168112684061E+00  0.178479439165E+00
  0.189433381569E+00  0.201000695635E+00  0.213207727145E+00  0.226080810995E+00  0.239646068748E+00
  0.253929172660E+00  0.268955072667E+00  0.284747682617E+00  0.301329521948E+00  0.318721308955E+00
  0.336941501824E+00  0.356005783734E+00  0.375926488622E+00  0.396711964631E+00  0.418365872905E+00
  0.440886420303E+00  0.464265525791E+00  0.488487921860E+00  0.513530194255E+00  0.539359765817E+00
  0.565933833236E+00  0.593198269177E+00  0.621086506602E+00  0.649518427171E+00  0.678399281539E+00
  0.707618676025E+00  0.737049667626E+00  0.766548017516E+00  0.795951661959E+00  0.825080468582E+00
  0.853736355011E+00  0.881703855321E+00  0.908751226891E+00  0.934632195261E+00  0.959088436067E+00
  0.981852889776E+00  0.100265399478E+01  0.102122090536E+01  0.103728973059E+01  0.105061078571E+01
  0.106095678593E+01  0.106813183156E+01  0.107198092964E+01  0.107239967047E+01  0.106934352644E+01
  0.106283606789E+01  0.105297520228E+01  0.103993634812E+01  0.102397126985E+01  0.100540114852E+01
  0.984602376673E+00  0.961983587333E+00  0.937952609184E+00  0.912872443460E+00  0.887006052155E+00
  0.860452991731E+00  0.833252801519E+00  0.805493529391E+00  0.777271453262E+00  0.748683201924E+00
  0.719825238096E+00  0.690793328435E+00  0.661681998628E+00  0.632583974907E+00  0.603589615957E+00
  0.574786343837E+00  0.546258085908E+00  0.518084744401E+00  0.490341709559E+00  0.463099436489E+00
  0.436423101234E+00  0.410372349293E+00  0.385001144350E+00  0.360357718717E+00  0.336484620467E+00
  0.313418845898E+00  0.291192040673E+00  0.269830748981E+00  0.249356687821E+00  0.229787023159E+00
  0.211134626457E+00  0.193408293773E+00  0.176612915230E+00  0.160749589661E+00  0.145815686884E+00
  0.131804867638E+00  0.118707077479E+00  0.106508535194E+00  0.951917379005E-01  0.847355037584E-01
  0.751150696074E-01  0.663022553859E-01  0.582657008795E-01  0.509711740036E-01  0.443819441832E-01
  0.384592099214E-01  0.331625665882E-01  0.284504988041E-01  0.242808814170E-01  0.206114737297E-01
  0.174003930790E-01  0.146065558390E-01  0.121900761971E-01  0.101126154439E-01  0.833767690013E-02
  0.683084384737E-02  0.555995988725E-02  0.449525295743E-02  0.360940576797E-02  0.287757666854E-02
  0.227737591772E-02  0.178880300745E-02
 ae wavefunction
  0.106376663925E-06  0.113087378605E-06  0.120167204093E-06  0.127639453829E-06  0.135528788460E-06
  0.143861306001E-06  0.152664629090E-06  0.161968008196E-06  0.171802424617E-06  0.182200702277E-06
  0.193197625722E-06  0.204830065916E-06  0.217137113874E-06  0.230160222704E-06  0.243943358664E-06
  0.258533161458E-06  0.273979115321E-06  0.290333730428E-06  0.307652736224E-06  0.325995286881E-06
  0.345424180108E-06  0.366006089849E-06  0.387811813984E-06  0.410916537952E-06  0.435400115356E-06
  0.461347366666E-06  0.488848397189E-06  0.517998935631E-06  0.548900694557E-06  0.581661754149E-06
  0.616396970934E-06  0.653228412956E-06  0.692285823209E-06  0.733707113374E-06  0.777638889272E-06
  0.824237010342E-06  0.873667187634E-06  0.926105617818E-06  0.981739656739E-06  0.104076854693E-05
  0.110340417959E-05  0.116987191516E-05  0.124041145028E-05  0.131527775374E-05  0.139474204600E-05
  0.147909285976E-05  0.156863715528E-05  0.166370152225E-05  0.176463344799E-05  0.187180267692E-05
  0.198560265527E-05  0.210645206859E-05  0.223479648729E-05  0.237111010771E-05  0.251589761940E-05
  0.266969618770E-05  0.283307756466E-05  0.300665034366E-05  0.319106235815E-05  0.338700323566E-05
  0.359520712234E-05  0.381645558329E-05  0.405158069433E-05  0.430146833255E-05  0.456706168813E-05
  0.484936499853E-05  0.514944753224E-05  0.546844782900E-05  0.580757822205E-05  0.616812964993E-05
  0.655147678881E-05  0.695908350829E-05  0.739250871641E-05  0.785341251676E-05  0.834356286693E-05
  0.886484257911E-05  0.941925683461E-05  0.100089411562E-04  0.106361699319E-04  0.113033654664E-04
  0.120131076347E-04  0.127681441654E-04  0.135714015958E-04  0.144259969312E-04  0.153352500788E-04
  0.163026970740E-04  0.173321041825E-04  0.184274829087E-04  0.195931059888E-04  0.208335244174E-04
  0.221535855856E-04  0.235584525931E-04  0.250536248132E-04  0.266449598029E-04  0.283386966199E-04
  0.301414806623E-04  0.320603901106E-04  0.341029640920E-04  0.362772326542E-04  0.385917486917E-04
  0.410556219312E-04  0.436785551078E-04  0.464708824889E-04  0.494436108723E-04  0.526084632391E-04
  0.559779252101E-04  0.595652945014E-04  0.633847335573E-04  0.674513255682E-04  0.717811340988E-04
  0.763912665059E-04  0.812999414902E-04  0.865265608942E-04  0.920917861720E-04  0.980176196869E-04
  0.104327491253E-03  0.111046350157E-03  0.118200763068E-03  0.125819018186E-03  0.133931235994E-03
  0.142569487043E-03  0.151767917245E-03  0.161562881049E-03  0.171993083077E-03  0.183099728700E-03
  0.194926684101E-03  0.207520646426E-03  0.220931324635E-03  0.235211631694E-03  0.250417888823E-03
  0.266610042508E-03  0.283851895072E-03  0.302211349609E-03  0.321760670146E-03  0.342576757962E-03
  0.364741445011E-03  0.388341805475E-03  0.413470486536E-03  0.440226059472E-03  0.468713392311E-03
  0.499044045277E-03  0.531336690368E-03  0.565717556476E-03  0.602320901510E-03  0.641289513072E-03
  0.682775239371E-03  0.726939551978E-03  0.773954142357E-03  0.824001553998E-03  0.877275852109E-03
  0.933983333047E-03  0.994343275554E-03  0.105858873622E-02  0.112696739142E-02  0.119974242835E-02
  0.127719348774E-02  0.135961766088E-02  0.144733054402E-02  0.154066735284E-02  0.163998410030E-02
  0.174565884096E-02  0.185809298508E-02  0.197771268610E-02  0.210497030488E-02  0.224034595445E-02
  0.238434912926E-02  0.253752042256E-02  0.270043333617E-02  0.287369618668E-02  0.305795411244E-02
  0.325389118548E-02  0.346223263297E-02  0.368374717262E-02  0.391924946659E-02  0.416960269843E-02
  0.443572127781E-02  0.471857367750E-02  0.501918540723E-02  0.533864212905E-02  0.567809291859E-02
  0.603875367649E-02  0.642191069441E-02  0.682892437938E-02  0.726123314047E-02  0.772035744098E-02
  0.820790401971E-02  0.872557028332E-02  0.927514887283E-02  0.985853240510E-02  0.104777183909E-01
  0.111348143293E-01  0.118320429787E-01  0.125717478014E-01  0.133563985807E-01  0.141885972064E-01
  0.150710836221E-01  0.160067419302E-01  0.169986066447E-01  0.180498690814E-01  0.191638838754E-01
  0.203441756103E-01  0.215944455427E-01  0.229185784032E-01  0.243206492528E-01  0.258049303683E-01
  0.273758981296E-01  0.290382398771E-01  0.307968607038E-01  0.326568901423E-01  0.346236887033E-01
  0.367028542167E-01  0.389002279233E-01  0.412219002565E-01  0.436742162521E-01  0.462637805150E-01
  0.489974616687E-01  0.518823962033E-01  0.549259916353E-01  0.581359288826E-01  0.615201637527E-01
  0.650869274339E-01  0.688447258721E-01  0.728023379090E-01  0.769688120484E-01  0.813534617116E-01
  0.859658588327E-01  0.908158256401E-01  0.959134244604E-01  0.101268945377E+00  0.106892891567E+00
  0.112795962129E+00  0.118989032231E+00  0.125483130367E+00  0.132289412540E+00  0.139419133179E+00
  0.146883612583E+00  0.154694200706E+00  0.162862237094E+00  0.171399006785E+00  0.180315691999E+00
  0.189623319469E+00  0.199332703246E+00  0.209454382872E+00  0.219998556817E+00  0.230975011094E+00
  0.242393043036E+00  0.254261380221E+00  0.266588094582E+00  0.279380511809E+00  0.292645116169E+00
  0.306387450937E+00  0.320612014691E+00  0.335322153768E+00  0.350519951235E+00  0.366206112781E+00
  0.382379849965E+00  0.399038761318E+00  0.416178711806E+00  0.433793711196E+00  0.451875791938E+00
  0.470414887181E+00  0.489398709712E+00  0.508812632750E+00  0.528639573860E+00  0.548859883775E+00
  0.569451242677E+00  0.590388567700E+00  0.611643937071E+00  0.633186538600E+00  0.654982653173E+00
  0.676995687222E+00  0.699186271025E+00  0.721512440233E+00  0.743929912254E+00  0.766392451467E+00
  0.788852281536E+00  0.811260448826E+00  0.833566982673E+00  0.855720672764E+00  0.877668340083E+00
  0.899353641378E+00  0.920715678287E+00  0.941687871102E+00  0.962197571128E+00  0.982166653878E+00
  0.100151294281E+01  0.102015199624E+01  0.103799875859E+01  0.105496880301E+01  0.107097916454E+01
  0.108594891129E+01  0.109979961459E+01  0.111245582358E+01  0.112384558912E+01  0.113390103858E+01
  0.114255898141E+01  0.114976151767E+01  0.115545662253E+01  0.115959868507E+01  0.116214898481E+01
  0.116307609610E+01  0.116235621367E+01  0.115997339636E+01  0.115591972875E+01  0.115019540070E+01
  0.114280870845E+01  0.113377597858E+01  0.112312142138E+01  0.111087691649E+01  0.109708173905E+01
  0.108178223082E+01  0.106503142542E+01  0.104688863368E+01  0.102741899768E+01  0.100669302031E+01
  0.984786077479E+00  0.961777919827E+00  0.937752167786E+00  0.912795806255E+00  0.886998680288E+00
  0.860452991731E+00  0.833252801519E+00  0.805493529391E+00  0.777271453262E+00  0.748683201924E+00
  0.719825238096E+00  0.690793328435E+00  0.661681998628E+00  0.632583974907E+00  0.603589615957E+00
  0.574786343837E+00  0.546258085908E+00  0.518084744401E+00  0.490341709559E+00  0.463099436489E+00
  0.436423101234E+00  0.410372349293E+00  0.385001144350E+00  0.360357718717E+00  0.336484620467E+00
  0.313418845898E+00  0.291192040673E+00  0.269830748981E+00  0.249356687821E+00  0.229787023159E+00
  0.211134626457E+00  0.193408293773E+00  0.176612915230E+00  0.160749589661E+00  0.145815686884E+00
  0.131804867638E+00  0.118707077479E+00  0.106508535194E+00  0.951917379005E-01  0.847355037584E-01
  0.751150696074E-01  0.663022553859E-01  0.582657008795E-01  0.509711740036E-01  0.443819441832E-01
  0.384592099214E-01  0.331625665882E-01  0.284504988041E-01  0.242808814170E-01  0.206114737297E-01
  0.174003930790E-01  0.146065558390E-01  0.121900761971E-01  0.101126154439E-01  0.833767690013E-02
  0.683084384737E-02  0.555995988725E-02  0.449525295743E-02  0.360940576797E-02  0.287757666854E-02
  0.227737591772E-02  0.178880300745E-02
 pseudo wavefunction
 -0.142177108330E-07 -0.151573934429E-07 -0.161591819300E-07 -0.172271810207E-07 -0.183657667324E-07
 -0.195796043043E-07 -0.208736673120E-07 -0.222532580471E-07 -0.237240292420E-07 -0.252920072319E-07
 -0.269636166468E-07 -0.287457067361E-07 -0.306455794322E-07 -0.326710192699E-07 -0.348303252825E-07
 -0.371323450063E-07 -0.395865107325E-07 -0.422028781547E-07 -0.449921675717E-07 -0.479658078124E-07
 -0.511359830642E-07 -0.545156827968E-07 -0.581187549848E-07 -0.619599628486E-07 -0.660550453453E-07
 -0.704207816571E-07 -0.750750599424E-07 -0.800369506308E-07 -0.853267845622E-07 -0.909662362900E-07
 -0.969784128907E-07 -0.103387948643E-06 -0.110221105962E-06 -0.117505883012E-06 -0.125272128418E-06
 -0.133551663576E-06 -0.142378413031E-06 -0.151788543484E-06 -0.161820611976E-06 -0.172515723878E-06
 -0.183917701311E-06 -0.196073262703E-06 -0.209032214215E-06 -0.222847653816E-06 -0.237576188843E-06
 -0.253278167948E-06 -0.270017928365E-06 -0.287864059533E-06 -0.306889684122E-06 -0.327172757658E-06
 -0.348796387925E-06 -0.371849175501E-06 -0.396425576781E-06 -0.422626291005E-06 -0.450558672861E-06
 -0.480337172360E-06 -0.512083803779E-06 -0.545928645605E-06 -0.582010373512E-06 -0.620476828571E-06
 -0.661485623011E-06 -0.705204786017E-06 -0.751813452209E-06 -0.801502595623E-06 -0.854475812207E-06
 -0.910950154028E-06 -0.971157018616E-06 -0.103534309709E-05 -0.110377138494E-05 -0.117672225960E-05
 -0.125449462931E-05 -0.133740715779E-05 -0.142579956996E-05 -0.152003404390E-05 -0.162049669484E-05
 -0.172759915718E-05 -0.184178027116E-05 -0.196350788087E-05 -0.209328075124E-05 -0.223163061160E-05
 -0.237912433439E-05 -0.253636625781E-05 -0.270400066200E-05 -0.288271440889E-05 -0.307323975646E-05
 -0.327635735906E-05 -0.349289946600E-05 -0.372375333153E-05 -0.396986485019E-05 -0.423224243241E-05
 -0.451196113631E-05 -0.481016707244E-05 -0.512808209980E-05 -0.546700883208E-05 -0.582833597482E-05
 -0.621354401526E-05 -0.662421128832E-05 -0.706202044336E-05 -0.752876533837E-05 -0.802635838979E-05
 -0.855683840809E-05 -0.912237895110E-05 -0.972529722948E-05 -0.103680636007E-04 -0.110533116904E-04
 -0.117838491829E-04 -0.125626693240E-04 -0.133929631852E-04 -0.142781327377E-04 -0.152218047897E-04
 -0.162278458463E-04 -0.173003779503E-04 -0.184437955700E-04 -0.196627836029E-04 -0.209623365697E-04
 -0.223477790760E-04 -0.238247876264E-04 -0.253994138799E-04 -0.270781094426E-04 -0.288677522973E-04
 -0.307756749815E-04 -0.328096946250E-04 -0.349781449743E-04 -0.372899105315E-04 -0.397544629495E-04
 -0.423818998319E-04 -0.451829860962E-04 -0.481691980697E-04 -0.513527704990E-04 -0.547467466649E-04
 -0.583650318083E-04 -0.622224500849E-04 -0.663348052833E-04 -0.707189455528E-04 -0.753928324076E-04
 -0.803756142885E-04 -0.856877049833E-04 -0.913508672270E-04 -0.973883018224E-04 -0.103824742647E-03
 -0.110686557934E-03 -0.118001858240E-03 -0.125800611544E-03 -0.134114765942E-03 -0.142978380447E-03
 -0.152427764418E-03 -0.162501626201E-03 -0.173241231570E-03 -0.184690572635E-03 -0.196896547894E-03
 -0.209909154162E-03 -0.223781691165E-03 -0.238570979641E-03 -0.254337593810E-03 -0.271146109195E-03
 -0.289065366773E-03 -0.308168754551E-03 -0.328534507699E-03 -0.350246028476E-03 -0.373392227231E-03
 -0.398067885880E-03 -0.424374045323E-03 -0.452418418382E-03 -0.482315829932E-03 -0.514188686002E-03
 -0.548167473754E-03 -0.584391294362E-03 -0.623008430938E-03 -0.664176953805E-03 -0.708065365561E-03
 -0.754853288528E-03 -0.804732197359E-03 -0.857906199745E-03 -0.914592868366E-03 -0.975024127411E-03
 -0.103944719723E-02 -0.110812560089E-02 -0.118134023667E-02 -0.125939052069E-02 -0.134259560443E-02
 -0.143129567163E-02 -0.152585332012E-02 -0.162665503364E-02 -0.173411274982E-02 -0.184866553018E-02
 -0.197078133890E-02 -0.210095893727E-02 -0.223972990113E-02 -0.238766076928E-02 -0.254535533099E-02
 -0.271345706163E-02 -0.289265171564E-02 -0.308367008678E-02 -0.328729094619E-02 -0.350434416932E-02
 -0.373571406360E-02 -0.398234290919E-02 -0.424523472598E-02 -0.452545928087E-02 -0.482415634984E-02
 -0.514254025036E-02 -0.548190466056E-02 -0.584362774221E-02 -0.622917758571E-02 -0.664011799603E-02
 -0.707811463969E-02 -0.754494157365E-02 -0.804248817797E-02 -0.857276651545E-02 -0.913791914189E-02
 -0.974022739213E-02 -0.103821201678E-01 -0.110661832538E-01 -0.117951691908E-01 -0.125720077343E-01
 -0.133998169267E-01 -0.142819148166E-01 -0.152218318529E-01 -0.162233239877E-01 -0.172903865178E-01
 -0.184272686979E-01 -0.196384891577E-01 -0.209288521518E-01 -0.223034646759E-01 -0.237677544763E-01
 -0.253274889805E-01 -0.269887951751E-01 -0.287581804512E-01 -0.306425544371E-01 -0.326492518302E-01
 -0.347860562366E-01 -0.370612250180E-01 -0.394835151380E-01 -0.420622099890E-01 -0.448071471696E-01
 -0.477287471675E-01 -0.508380428856E-01 -0.541467099324E-01 -0.576670975714E-01 -0.614122602010E-01
 -0.653959892047E-01 -0.696328449785E-01 -0.741381889000E-01 -0.789282149617E-01 -0.840199807377E-01
 -0.894314372924E-01 -0.951814575795E-01 -0.101289862796E+00 -0.107777446081E+00 -0.114665992841E+00
 -0.121978296897E+00 -0.129738171506E+00 -0.137970454194E+00 -0.146701004183E+00 -0.155956691043E+00
 -0.165765372992E+00 -0.176155863117E+00 -0.187157881526E+00 -0.198801991242E+00 -0.211119515379E+00
 -0.224142432898E+00 -0.237903249897E+00 -0.252434843169E+00 -0.267770272366E+00 -0.283942556835E+00
 -0.300984412836E+00 -0.318927946548E+00 -0.337804297922E+00 -0.357643230181E+00 -0.378472659490E+00
 -0.400318119130E+00 -0.423202152386E+00 -0.447143628336E+00 -0.472156974853E+00 -0.498251323415E+00
 -0.525429560831E+00 -0.553687283762E+00 -0.583011653021E+00 -0.613380146141E+00 -0.644759208644E+00
 -0.677102806954E+00 -0.710350889074E+00 -0.744427762931E+00 -0.779240407038E+00 -0.814676733614E+00
 -0.850603830840E+00 -0.886866218454E+00 -0.923284159398E+00 -0.959652079793E+00 -0.995737159912E+00
 -0.103127816995E+01 -0.106598463592E+01 -0.109953643244E+01 -0.113158391000E+01 -0.116174867354E+01
 -0.118962513584E+01 -0.121478297191E+01 -0.123677059762E+01 -0.125511978518E+01 -0.126935150798E+01
 -0.127898307452E+01 -0.128353656396E+01 -0.128254851183E+01 -0.127558071116E+01 -0.126223189171E+01
 -0.124214991818E+01 -0.121504401015E+01 -0.118069633845E+01 -0.113897220506E+01 -0.108982788145E+01
 -0.103331508749E+01 -0.969581066999E+00 -0.898863295438E+00 -0.821478083105E+00 -0.737802760793E+00
 -0.648251802675E+00 -0.553248190842E+00 -0.453192576603E+00 -0.348434326942E+00 -0.239250284819E+00
 -0.125840045614E+00 -0.837728405600E-02  0.112928572363E+00  0.237833859930E+00  0.000000000000E+00
  0.000000000000E+00  0.000000000000E+00  0.000000000000E+00  0.000000000000E+00  0.000000000000E+00
  0.000000000000E+00  0.000000000000E+00  0.000000000000E+00  0.000000000000E+00  0.000000000000E+00
  0.000000000000E+00  0.000000000000E+00  0.000000000000E+00  0.000000000000E+00  0.000000000000E+00
  0.000000000000E+00  0.000000000000E+00  0.000000000000E+00  0.000000000000E+00  0.000000000000E+00
  0.000000000000E+00  0.000000000000E+00  0.000000000000E+00  0.000000000000E+00  0.000000000000E+00
  0.000000000000E+00  0.000000000000E+00  0.000000000000E+00  0.000000000000E+00  0.000000000000E+00
  0.000000000000E+00  0.000000000000E+00  0.000000000000E+00  0.000000000000E+00  0.000000000000E+00
  0.000000000000E+00  0.000000000000E+00  0.000000000000E+00  0.000000000000E+00  0.000000000000E+00
  0.000000000000E+00  0.000000000000E+00  0.000000000000E+00  0.000000000000E+00  0.000000000000E+00
  0.000000000000E+00  0.000000000000E+00  0.000000000000E+00  0.000000000000E+00  0.000000000000E+00
  0.000000000000E+00  0.000000000000E+00
 ae wavefunction
 -0.164103091351E-06 -0.174455463598E-06 -0.185377249165E-06 -0.196904412867E-06 -0.209074997802E-06
 -0.221929264446E-06 -0.235509825264E-06 -0.249861803909E-06 -0.265032994127E-06 -0.281074032219E-06
 -0.298038579069E-06 -0.315983514204E-06 -0.334969141945E-06 -0.355059410534E-06 -0.376322145163E-06
 -0.398829295257E-06 -0.422657198395E-06 -0.447886860176E-06 -0.474604252453E-06 -0.502900630287E-06
 -0.532872869502E-06 -0.564623825652E-06 -0.598262716151E-06 -0.633905526948E-06 -0.671675445409E-06
 -0.711703321117E-06 -0.754128156397E-06 -0.799097628596E-06 -0.846768646160E-06 -0.897307940642E-06
 -0.950892697235E-06 -0.100771122609E-05 -0.106796367726E-05 -0.113186280233E-05 -0.119963476507E-05
 -0.127152000448E-05 -0.134777415731E-05 -0.142866903613E-05 -0.151449366839E-05 -0.160555541874E-05
 -0.170218116450E-05 -0.180471856155E-05 -0.191353738172E-05 -0.202903095671E-05 -0.215161768910E-05
 -0.228174268849E-05 -0.241987949208E-05 -0.256653191872E-05 -0.272223602534E-05 -0.288756220416E-05
 -0.306311741139E-05 -0.324954753910E-05 -0.344753995374E-05 -0.365782618201E-05 -0.388118479149E-05
 -0.411844444908E-05 -0.437048717744E-05 -0.463825183309E-05 -0.492273780696E-05 -0.522500896424E-05
 -0.554619784759E-05 -0.588751015119E-05 -0.625022949052E-05 -0.663572247845E-05 -0.704544414279E-05
 -0.748094368698E-05 -0.794387063565E-05 -0.843598137586E-05 -0.895914613337E-05 -0.951535639575E-05
 -0.101067328297E-04 -0.107355336978E-04 -0.114041638749E-04 -0.121151843471E-04 -0.128713224830E-04
 -0.136754828336E-04 -0.145307587244E-04 -0.154404445544E-04 -0.164080489451E-04 -0.174373087041E-04
 -0.185322037169E-04 -0.196969728114E-04 -0.209361306575E-04 -0.222544857528E-04 -0.236571596052E-04
 -0.251496071358E-04 -0.267376384335E-04 -0.284274419087E-04 -0.302256089645E-04 -0.321391602635E-04
 -0.341755737080E-04 -0.363428142333E-04 -0.386493655310E-04 -0.411042638498E-04 -0.437171339654E-04
 -0.464982274998E-04 -0.494584637120E-04 -0.526094729462E-04 -0.559636428708E-04 -0.595341677300E-04
 -0.633351007710E-04 -0.673814100523E-04 -0.716890378718E-04 -0.762749640132E-04 -0.811572730876E-04
 -0.863552261982E-04 -0.918893372343E-04 -0.977814540650E-04 -0.104054844955E-03 -0.110734290550E-03
 -0.117846181707E-03 -0.125418623704E-03 -0.133481546999E-03 -0.142066825192E-03 -0.151208400443E-03
 -0.160942416968E-03 -0.171307363004E-03 -0.182344221837E-03 -0.194096632474E-03 -0.206611060486E-03
 -0.219936979712E-03 -0.234127065533E-03 -0.249237400317E-03 -0.265327691906E-03 -0.282461505898E-03
 -0.300706512564E-03 -0.320134749319E-03 -0.340822899708E-03 -0.362852589880E-03 -0.386310703657E-03
 -0.411289717301E-03 -0.437888055184E-03 -0.466210467617E-03 -0.496368432175E-03 -0.528480579932E-03
 -0.562673148085E-03 -0.599080460546E-03 -0.637845438163E-03 -0.679120140310E-03 -0.723066339706E-03
 -0.769856132406E-03 -0.819672584999E-03 -0.872710421206E-03 -0.929176750127E-03 -0.989291838515E-03
 -0.105328992969E-02 -0.112142011158E-02 -0.119394723678E-02 -0.127115289761E-02 -0.135333645905E-02
 -0.144081615290E-02 -0.153393023652E-02 -0.163303821963E-02 -0.173852216293E-02 -0.185078805226E-02
 -0.197026725253E-02 -0.209741804542E-02 -0.223272725538E-02 -0.237671196842E-02 -0.252992134848E-02
 -0.269293855626E-02 -0.286638277574E-02 -0.305091135352E-02 -0.324722205676E-02 -0.345605545504E-02
 -0.367819743232E-02 -0.391448183489E-02 -0.416579326152E-02 -0.443307000218E-02 -0.471730713193E-02
 -0.501955976652E-02 -0.534094648655E-02 -0.568265293709E-02 -0.604593560961E-02 -0.643212581345E-02
 -0.684263384360E-02 -0.727895335216E-02 -0.774266593018E-02 -0.823544590702E-02 -0.875906537387E-02
 -0.931539943816E-02 -0.990643171507E-02 -0.105342600623E-01 -0.112011025636E-01 -0.119093037666E-01
 -0.126613411785E-01 -0.134598320256E-01 -0.143075402770E-01 -0.152073839377E-01 -0.161624426093E-01
 -0.171759653219E-01 -0.182513786318E-01 -0.193922949855E-01 -0.206025213441E-01 -0.218860680613E-01
 -0.232471580075E-01 -0.246902359286E-01 -0.262199780252E-01 -0.278413017375E-01 -0.295593757153E-01
 -0.313796299497E-01 -0.333077660415E-01 -0.353497675733E-01 -0.375119105514E-01 -0.398007738773E-01
 -0.422232498020E-01 -0.447865543141E-01 -0.474982374024E-01 -0.503661931308E-01 -0.533986694543E-01
 -0.566042776975E-01 -0.599920016099E-01 -0.635712059037E-01 -0.673516441700E-01 -0.713434660601E-01
 -0.755572236109E-01 -0.800038765785E-01 -0.846947966376E-01 -0.896417702907E-01 -0.948570003192E-01
 -0.100353105598E+00 -0.106143119081E+00 -0.112240483749E+00 -0.118659046313E+00 -0.125413048427E+00
 -0.132517115175E+00 -0.139986240576E+00 -0.147835769830E+00 -0.156081378025E+00 -0.164739045014E+00
 -0.173825026142E+00 -0.183355818528E+00 -0.193348122550E+00 -0.203818798220E+00 -0.214784816104E+00
 -0.226263202432E+00 -0.238270978076E+00 -0.250825091039E+00 -0.263942342125E+00 -0.277639303470E+00
 -0.291932229620E+00 -0.306836960865E+00 -0.322368818574E+00 -0.338542492298E+00 -0.355371918446E+00
 -0.372870150393E+00 -0.391049219931E+00 -0.409919990022E+00 -0.429491998904E+00 -0.449773295642E+00
 -0.470770267310E+00 -0.492487458080E+00 -0.514927380536E+00 -0.538090319651E+00 -0.561974129891E+00
 -0.586574026025E+00 -0.611882368216E+00 -0.637888442072E+00 -0.664578234350E+00 -0.691934205081E+00
 -0.719935056990E+00 -0.748555503243E+00 -0.777766034857E+00 -0.807532689609E+00 -0.837816825059E+00
 -0.868574899536E+00 -0.899758266726E+00 -0.931312992090E+00 -0.963179702756E+00 -0.995293487027E+00
 -0.102758386453E+01 -0.105997485235E+01 -0.109238515301E+01 -0.112472848119E+01 -0.115691401905E+01
 -0.118884693607E+01 -0.122042882781E+01 -0.125155784196E+01 -0.128212822453E+01 -0.131202910742E+01
 -0.134114260716E+01 -0.136934165117E+01 -0.139648822486E+01 -0.142243274388E+01 -0.144701489997E+01
 -0.147006574025E+01 -0.149141027353E+01 -0.151086986259E+01 -0.152826400540E+01 -0.154341151466E+01
 -0.155613132098E+01 -0.156624314113E+01 -0.157356816731E+01 -0.157792984269E+01 -0.157915472525E+01
 -0.157707341011E+01 -0.157152147104E+01 -0.156234038383E+01 -0.154937840294E+01 -0.153249137186E+01
 -0.151154345730E+01 -0.148640780346E+01 -0.145696710863E+01 -0.142311413079E+01 -0.138475213059E+01
 -0.134179526607E+01 -0.129416895118E+01 -0.124181019835E+01 -0.118466796171E+01 -0.112270350515E+01
 -0.105589081616E+01 -0.984217092207E+00 -0.907683323965E+00 -0.826305002468E+00 -0.740112975860E+00
 -0.649154481257E+00 -0.553494376406E+00 -0.453216592629E+00 -0.348425831062E+00 -0.239249519471E+00
 -0.125840045614E+00 -0.837728405600E-02  0.112928572363E+00  0.237833859930E+00  0.000000000000E+00
  0.000000000000E+00  0.000000000000E+00  0.000000000000E+00  0.000000000000E+00  0.000000000000E+00
  0.000000000000E+00  0.000000000000E+00  0.000000000000E+00  0.000000000000E+00  0.000000000000E+00
  0.000000000000E+00  0.000000000000E+00  0.000000000000E+00  0.000000000000E+00  0.000000000000E+00
  0.000000000000E+00  0.000000000000E+00  0.000000000000E+00  0.000000000000E+00  0.000000000000E+00
  0.000000000000E+00  0.000000000000E+00  0.000000000000E+00  0.000000000000E+00  0.000000000000E+00
  0.000000000000E+00  0.000000000000E+00  0.000000000000E+00  0.000000000000E+00  0.000000000000E+00
  0.000000000000E+00  0.000000000000E+00  0.000000000000E+00  0.000000000000E+00  0.000000000000E+00
  0.000000000000E+00  0.000000000000E+00  0.000000000000E+00  0.000000000000E+00  0.000000000000E+00
  0.000000000000E+00  0.000000000000E+00  0.000000000000E+00  0.000000000000E+00  0.000000000000E+00
  0.000000000000E+00  0.000000000000E+00  0.000000000000E+00  0.000000000000E+00  0.000000000000E+00
  0.000000000000E+00  0.000000000000E+00
 End of Dataset
