Al36 Ga42 N42 O54
1.0
   8.3225512767914385    0.0000000000000000    0.0000000000000005
   4.1612756383957175    7.2075408300000010    0.0000000000000005
   0.0000000000000000    0.0000000000000000   52.2068705372778794
Al Ga N O
36 42 42 54
Selective dynamics
direct
   0.0000000000000000    0.0000000000000000    0.4315597956581112 T T T Al3+
   0.3333333333333333    0.3333333333333334    0.4315597956581112 T T T Al3+
   0.6666666666666666    0.6666666666666667    0.4315597956581112 T T T Al3+
   0.3333333333333333    0.0000000000000000    0.2127686155048923 F F F Al3+
   0.6666666666666666    0.3333333333333334    0.2127686155048923 F F F Al3+
   0.0000000000000000    0.6666666666666667    0.2127686155048923 F F F Al3+
   0.3333333333333333    0.0000000000000000    0.3896871036956153 T T T Al3+
   0.6666666666666666    0.3333333333333334    0.3896871036956153 T T T Al3+
   0.0000000000000000    0.6666666666666667    0.3896871036956153 T T T Al3+
   0.3333333333333333    0.6666666666666667    0.4221320753173713 T T T Al3+
   0.6666666666666666    0.0000000000000001    0.4221320753173713 T T T Al3+
   0.0000000000000000    0.3333333333333334    0.4221320753173713 T T T Al3+
   0.3333333333333333    0.6666666666666667    0.3478144117331197 T T T Al3+
   0.6666666666666666    0.0000000000000001    0.3478144117331197 T T T Al3+
   0.0000000000000000    0.3333333333333334    0.3478144117331197 T T T Al3+
   0.0000000000000000    0.0000000000000000    0.3802593833548756 T T T Al3+
   0.3333333333333333    0.3333333333333334    0.3802593833548756 T T T Al3+
   0.6666666666666666    0.6666666666666667    0.3802593833548756 T T T Al3+
   0.0000000000000000    0.0000000000000000    0.3059417197706238 F F F Al3+
   0.3333333333333333    0.3333333333333334    0.3059417197706238 F F F Al3+
   0.6666666666666666    0.6666666666666667    0.3059417197706238 F F F Al3+
   0.3333333333333333    0.0000000000000001    0.3383866913923798 T T T Al3+
   0.6666666666666665    0.3333333333333334    0.3383866913923798 T T T Al3+
   0.9999999999999999    0.6666666666666667    0.3383866913923798 T T T Al3+
   0.3333333333333333    0.0000000000000000    0.2640690278081280 F F F Al3+
   0.6666666666666666    0.3333333333333334    0.2640690278081280 F F F Al3+
   0.0000000000000000    0.6666666666666667    0.2640690278081280 F F F Al3+
   0.3333333333333333    0.6666666666666667    0.2965139994298840 F F F Al3+
   0.6666666666666666    0.0000000000000000    0.2965139994298840 F F F Al3+
   0.0000000000000000    0.3333333333333333    0.2965139994298840 F F F Al3+
   0.3333333333333333    0.6666666666666667    0.2221963358456323 F F F Al3+
   0.6666666666666666    0.0000000000000000    0.2221963358456323 F F F Al3+
   0.0000000000000000    0.3333333333333333    0.2221963358456323 F F F Al3+
   0.0000000000000000    0.0000000000000000    0.2546413074673882 F F F Al3+
   0.3333333333333333    0.3333333333333334    0.2546413074673882 F F F Al3+
   0.6666666666666666    0.6666666666666667    0.2546413074673882 F F F Al3+
   0.2083333333333333    0.0833333333333333    0.4841759587847616 T T T Ga3+
   0.4940476190476191    0.2261904761904762    0.4841759587847616 T T T Ga3+
   0.7797619047619048    0.3690476190476192    0.4841759587847616 T T T Ga3+
   0.0654761904761905    0.5119047619047619    0.4841759587847616 T T T Ga3+
   0.3511904761904762    0.6547619047619049    0.4841759587847616 T T T Ga3+
   0.6369047619047619    0.7976190476190477    0.4841759587847616 T T T Ga3+
   0.9226190476190478    0.9404761904761905    0.4841759587847616 T T T Ga3+
   0.2559523809523809    0.2738095238095237    0.5339046362228437 T T T Ga3+
   0.5416666666666666    0.4166666666666669    0.5339046362228437 T T T Ga3+
   0.8273809523809522    0.5595238095238098    0.5339046362228437 T T T Ga3+
   0.1130952380952382    0.7023809523809522    0.5339046362228437 T T T Ga3+
   0.3988095238095238    0.8452380952380951    0.5339046362228437 T T T Ga3+
   0.6845238095238095    0.9880952380952381    0.5339046362228437 T T T Ga3+
   0.9702380952380952    0.1309523809523812    0.5339046362228437 T T T Ga3+
   0.2083333333333333    0.0833333333333333    0.5836333136609257 T T T Ga3+
   0.4940476190476191    0.2261904761904762    0.5836333136609257 T T T Ga3+
   0.7797619047619048    0.3690476190476192    0.5836333136609256 T T T Ga3+
   0.0654761904761905    0.5119047619047619    0.5836333136609257 T T T Ga3+
   0.3511904761904762    0.6547619047619049    0.5836333136609256 T T T Ga3+
   0.6369047619047619    0.7976190476190477    0.5836333136609256 T T T Ga3+
   0.9226190476190478    0.9404761904761905    0.5836333136609256 T T T Ga3+
   0.2559523809523809    0.2738095238095237    0.6333619910990076 F F F Ga3+
   0.5416666666666666    0.4166666666666669    0.6333619910990076 F F F Ga3+
   0.8273809523809522    0.5595238095238098    0.6333619910990076 F F F Ga3+
   0.1130952380952382    0.7023809523809522    0.6333619910990076 F F F Ga3+
   0.3988095238095238    0.8452380952380951    0.6333619910990076 F F F Ga3+
   0.6845238095238095    0.9880952380952381    0.6333619910990076 F F F Ga3+
   0.9702380952380952    0.1309523809523812    0.6333619910990076 F F F Ga3+
   0.2083333333333333    0.0833333333333333    0.6830906685370899 F F F Ga3+
   0.4940476190476191    0.2261904761904762    0.6830906685370899 F F F Ga3+
   0.7797619047619048    0.3690476190476192    0.6830906685370899 F F F Ga3+
   0.0654761904761905    0.5119047619047619    0.6830906685370899 F F F Ga3+
   0.3511904761904762    0.6547619047619049    0.6830906685370899 F F F Ga3+
   0.6369047619047619    0.7976190476190477    0.6830906685370899 F F F Ga3+
   0.9226190476190478    0.9404761904761905    0.6830906685370899 F F F Ga3+
   0.2559523809523809    0.2738095238095237    0.7328193459751720 F F F Ga3+
   0.5416666666666666    0.4166666666666669    0.7328193459751720 F F F Ga3+
   0.8273809523809522    0.5595238095238098    0.7328193459751720 F F F Ga3+
   0.1130952380952382    0.7023809523809522    0.7328193459751720 F F F Ga3+
   0.3988095238095238    0.8452380952380951    0.7328193459751720 F F F Ga3+
   0.6845238095238095    0.9880952380952381    0.7328193459751720 F F F Ga3+
   0.9702380952380952    0.1309523809523812    0.7328193459751720 F F F Ga3+
   0.2083333333333333    0.0833333333333333    0.5216547304227221 T T T N3-
   0.4940476190476191    0.2261904761904762    0.5216547304227221 T T T N3-
   0.7797619047619048    0.3690476190476192    0.5216547304227221 T T T N3-
   0.0654761904761905    0.5119047619047619    0.5216547304227221 T T T N3-
   0.3511904761904762    0.6547619047619049    0.5216547304227221 T T T N3-
   0.6369047619047619    0.7976190476190477    0.5216547304227221 T T T N3-
   0.9226190476190478    0.9404761904761905    0.5216547304227221 T T T N3-
   0.2559523809523809    0.2738095238095237    0.5713834078608041 T T T N3-
   0.5416666666666666    0.4166666666666669    0.5713834078608041 T T T N3-
   0.8273809523809522    0.5595238095238098    0.5713834078608041 T T T N3-
   0.1130952380952382    0.7023809523809522    0.5713834078608041 T T T N3-
   0.3988095238095238    0.8452380952380951    0.5713834078608041 T T T N3-
   0.6845238095238095    0.9880952380952381    0.5713834078608043 T T T N3-
   0.9702380952380952    0.1309523809523812    0.5713834078608041 T T T N3-
   0.2083333333333333    0.0833333333333333    0.6211120852988863 T T T N3-
   0.4940476190476191    0.2261904761904762    0.6211120852988863 T T T N3-
   0.7797619047619048    0.3690476190476192    0.6211120852988863 T T T N3-
   0.0654761904761905    0.5119047619047619    0.6211120852988863 T T T N3-
   0.3511904761904762    0.6547619047619049    0.6211120852988863 T T T N3-
   0.6369047619047619    0.7976190476190477    0.6211120852988863 T T T N3-
   0.9226190476190478    0.9404761904761905    0.6211120852988863 T T T N3-
   0.2559523809523809    0.2738095238095237    0.6708407627369682 F F F N3-
   0.5416666666666666    0.4166666666666669    0.6708407627369682 F F F N3-
   0.8273809523809522    0.5595238095238098    0.6708407627369682 F F F N3-
   0.1130952380952382    0.7023809523809522    0.6708407627369682 F F F N3-
   0.3988095238095238    0.8452380952380951    0.6708407627369682 F F F N3-
   0.6845238095238095    0.9880952380952381    0.6708407627369682 F F F N3-
   0.9702380952380952    0.1309523809523812    0.6708407627369682 F F F N3-
   0.2083333333333333    0.0833333333333333    0.7205694401750503 F F F N3-
   0.4940476190476191    0.2261904761904762    0.7205694401750502 F F F N3-
   0.7797619047619048    0.3690476190476192    0.7205694401750502 F F F N3-
   0.0654761904761905    0.5119047619047619    0.7205694401750502 F F F N3-
   0.3511904761904762    0.6547619047619049    0.7205694401750502 F F F N3-
   0.6369047619047619    0.7976190476190477    0.7205694401750502 F F F N3-
   0.9226190476190478    0.9404761904761905    0.7205694401750502 F F F N3-
   0.2559523809523809    0.2738095238095237    0.7702981176131323 F F F N3-
   0.5416666666666666    0.4166666666666669    0.7702981176131323 F F F N3-
   0.8273809523809522    0.5595238095238098    0.7702981176131323 F F F N3-
   0.1130952380952382    0.7023809523809522    0.7702981176131323 F F F N3-
   0.3988095238095238    0.8452380952380951    0.7702981176131323 F F F N3-
   0.6845238095238095    0.9880952380952381    0.7702981176131323 F F F N3-
   0.9702380952380952    0.1309523809523812    0.7702981176131323 F F F N3-
   0.5646181666666665    0.8707636666666666    0.4059095895064933 T T T O2-
   0.8979514999999999    0.2040970000000000    0.4059095895064933 T T T O2-
   0.2312848333333330    0.5374303333333335    0.4059095895064933 T T T O2-
   0.1292363333333333    0.7687151666666667    0.4477822814689892 T T T O2-
   0.4625696666666665    0.1020485000000001    0.4477822814689892 T T T O2-
   0.7959029999999999    0.4353818333333335    0.4477822814689892 T T T O2-
   0.2040969999999999    0.8979515000000000    0.4059095895064933 T T T O2-
   0.5374303333333332    0.2312848333333334    0.4059095895064933 T T T O2-
   0.8707636666666665    0.5646181666666668    0.4059095895064933 T T T O2-
   0.5646181666666665    0.5646181666666670    0.4059095895064933 T T T O2-
   0.8979514999999999    0.8979515000000002    0.4059095895064933 T T T O2-
   0.2312848333333330    0.2312848333333336    0.4059095895064933 T T T O2-
   0.4353818333333332    0.7687151666666668    0.4477822814689892 T T T O2-
   0.7687151666666666    0.1020485000000000    0.4477822814689892 T T T O2-
   0.1020484999999998    0.4353818333333335    0.4477822814689892 T T T O2-
   0.4353818333333332    0.4625696666666667    0.4477822814689892 T T T O2-
   0.7687151666666666    0.7959030000000000    0.4477822814689892 T T T O2-
   0.1020485000000000    0.1292363333333334    0.4477822814689892 T T T O2-
   0.2312848333333333    0.8707636666666668    0.3221642055815018 F F F O2-
   0.5646181666666666    0.2040970000000001    0.3221642055815018 F F F O2-
   0.8979514999999999    0.5374303333333335    0.3221642055815018 F F F O2-
   0.1292363333333332    0.1020485000000002    0.3640368975439976 T T T O2-
   0.4625696666666665    0.4353818333333336    0.3640368975439976 T T T O2-
   0.7959029999999998    0.7687151666666668    0.3640368975439976 T T T O2-
   0.5374303333333331    0.5646181666666668    0.3221642055815018 F F F O2-
   0.8707636666666664    0.8979515000000000    0.3221642055815018 F F F O2-
   0.2040970000000000    0.2312848333333333    0.3221642055815018 F F F O2-
   0.2312848333333333    0.5646181666666668    0.3221642055815018 F F F O2-
   0.5646181666666666    0.8979515000000000    0.3221642055815018 F F F O2-
   0.8979514999999999    0.2312848333333334    0.3221642055815018 F F F O2-
   0.4353818333333332    0.1020485000000000    0.3640368975439976 T T T O2-
   0.7687151666666666    0.4353818333333333    0.3640368975439976 T T T O2-
   0.1020484999999998    0.7687151666666667    0.3640368975439976 T T T O2-
   0.4353818333333332    0.7959029999999999    0.3640368975439976 T T T O2-
   0.7687151666666666    0.1292363333333334    0.3640368975439976 T T T O2-
   0.1020484999999998    0.4625696666666667    0.3640368975439976 T T T O2-
   0.2312848333333333    0.2040970000000000    0.2384188216565102 F F F O2-
   0.5646181666666666    0.5374303333333336    0.2384188216565102 F F F O2-
   0.8979514999999999    0.8707636666666667    0.2384188216565102 F F F O2-
   0.4625696666666665    0.7687151666666667    0.2802915136190061 F F F O2-
   0.7959029999999998    0.1020485000000001    0.2802915136190061 F F F O2-
   0.1292363333333333    0.4353818333333334    0.2802915136190061 F F F O2-
   0.5374303333333331    0.8979514999999999    0.2384188216565102 F F F O2-
   0.8707636666666664    0.2312848333333334    0.2384188216565102 F F F O2-
   0.2040970000000000    0.5646181666666668    0.2384188216565102 F F F O2-
   0.2312848333333333    0.8979514999999999    0.2384188216565102 F F F O2-
   0.5646181666666666    0.2312848333333334    0.2384188216565102 F F F O2-
   0.8979514999999999    0.5646181666666666    0.2384188216565102 F F F O2-
   0.1020485000000000    0.1020485000000000    0.2802915136190061 F F F O2-
   0.4353818333333332    0.4353818333333334    0.2802915136190061 F F F O2-
   0.7687151666666666    0.7687151666666666    0.2802915136190061 F F F O2-
   0.1020485000000000    0.7959030000000000    0.2802915136190061 F F F O2-
   0.4353818333333332    0.1292363333333334    0.2802915136190061 F F F O2-
   0.7687151666666666    0.4625696666666668    0.2802915136190061 F F F O2-
