  PAW_PBE K_pv 17Jan2003                 
   7.00000000000000     
 parameters from PSCTR are:
   VRHFIN =K:  p6s1
   LEXCH  = PE
   EATOM  =   450.4813 eV,   33.1094 Ry

   TITEL  = PAW_PBE K_pv 17Jan2003
   LULTRA =        F    use ultrasoft PP ?
   IUNSCR =        1    unscreen: 0-lin 1-nonlin 2-no
   RPACOR =    2.500    partial core radius
   POMASS =   39.098; ZVAL   =    7.000    mass and valenz
   RCORE  =    3.100    outmost cutoff radius
   RWIGS  =    4.300; RWIGS  =    2.275    wigner-seitz radius (au A)
   ENMAX  =  116.731; ENMIN  =   87.548 eV
   RCLOC  =    2.806    cutoff for local pot
   LCOR   =        T    correct aug charges
   LPAW   =        T    paw PP
   EAUG   =  291.424
   DEXC   =    0.000
   RMAX   =    3.171    core radius for proj-oper
   RAUG   =    1.300    factor for augmentation sphere
   RDEP   =    3.267    radius for radial grids
   RDEPT  =    2.513    core radius for aug-charge
 
   Atomic configuration
    7 entries
     n  l   j            E        occ.
     1  0  0.50     -3522.0595   2.0000
     2  0  0.50      -353.3851   2.0000
     2  1  1.50      -280.0935   6.0000
     3  0  0.50       -35.3419   2.0000
     3  1  1.50       -18.8125   6.0000
     4  0  0.50        -2.3190   1.0000
     3  2  1.50        -1.3606   0.0000
   Description
     l       E           TYP  RCUT    TYP  RCUT
     1    -18.8124623     23  3.000
     1    -20.4087390     23  3.000
     0     -2.3190215     23  3.100
     0     20.4087390     23  3.100
     2     -1.3605826     23  3.000
   Error from kinetic energy argument (eV)
   NDATA  =      100
   STEP   =   20.000   1.050
  36.4      34.6      33.7      31.8      30.9      29.0      27.1      26.1
  24.2      22.4      21.4      19.7      17.9      16.3      14.7      13.2
  11.8      10.5      9.24      7.59      6.60      5.71      4.53      3.85
  3.25      2.48      1.86      1.52      1.10     0.778     0.536     0.360
 0.234     0.148     0.913E-01 0.556E-01 0.301E-01 0.211E-01 0.166E-01 0.157E-01
 0.157E-01 0.153E-01 0.141E-01 0.121E-01 0.975E-02 0.737E-02 0.529E-02 0.334E-02
 0.234E-02 0.168E-02 0.145E-02 0.142E-02 0.141E-02 0.134E-02 0.115E-02 0.924E-03
 0.694E-03 0.470E-03 0.334E-03 0.277E-03 0.266E-03 0.263E-03 0.247E-03 0.205E-03
 0.159E-03 0.112E-03 0.839E-04 0.737E-04 0.723E-04 0.690E-04 0.582E-04 0.434E-04
 0.315E-04 0.258E-04 0.246E-04 0.238E-04 0.203E-04 0.152E-04 0.111E-04 0.983E-05
 0.956E-05 0.850E-05 0.654E-05 0.483E-05 0.432E-05 0.416E-05 0.352E-05 0.260E-05
 0.215E-05 0.207E-05 0.180E-05 0.138E-05 0.113E-05 0.109E-05 0.923E-06 0.706E-06
 0.631E-06 0.589E-06 0.458E-06 0.385E-06
END of PSCTR-controll parameters
 local part
   60.4712316345255     
  0.18876200E+03  0.18871664E+03  0.18858063E+03  0.18835420E+03  0.18803772E+03
  0.18763170E+03  0.18713682E+03  0.18655387E+03  0.18588378E+03  0.18512763E+03
  0.18428662E+03  0.18336205E+03  0.18235538E+03  0.18126817E+03  0.18010208E+03
  0.17885890E+03  0.17754054E+03  0.17614900E+03  0.17468637E+03  0.17315487E+03
  0.17155680E+03  0.16989453E+03  0.16817054E+03  0.16638737E+03  0.16454763E+03
  0.16265400E+03  0.16070921E+03  0.15871604E+03  0.15667732E+03  0.15459589E+03
  0.15247466E+03  0.15031653E+03  0.14812443E+03  0.14590132E+03  0.14365013E+03
  0.14137382E+03  0.13907532E+03  0.13675757E+03  0.13442348E+03  0.13207592E+03
  0.12971776E+03  0.12735182E+03  0.12498085E+03  0.12260759E+03  0.12023472E+03
  0.11786484E+03  0.11550052E+03  0.11314423E+03  0.11079839E+03  0.10846534E+03
  0.10614734E+03  0.10384658E+03  0.10156515E+03  0.99305067E+02  0.97068240E+02
  0.94856499E+02  0.92671575E+02  0.90515105E+02  0.88388626E+02  0.86293577E+02
  0.84231298E+02  0.82203029E+02  0.80209909E+02  0.78252981E+02  0.76333183E+02
  0.74451358E+02  0.72608251E+02  0.70804507E+02  0.69040679E+02  0.67317222E+02
  0.65634503E+02  0.63992796E+02  0.62392285E+02  0.60833072E+02  0.59315174E+02
  0.57838527E+02  0.56402991E+02  0.55008351E+02  0.53654322E+02  0.52340548E+02
  0.51066613E+02  0.49832037E+02  0.48636283E+02  0.47478761E+02  0.46358829E+02
  0.45275800E+02  0.44228943E+02  0.43217488E+02  0.42240629E+02  0.41297528E+02
  0.40387318E+02  0.39509111E+02  0.38661993E+02  0.37845035E+02  0.37057294E+02
  0.36297816E+02  0.35565637E+02  0.34859791E+02  0.34179309E+02  0.33523224E+02
  0.32890571E+02  0.32280394E+02  0.31691745E+02  0.31123686E+02  0.30575295E+02
  0.30045666E+02  0.29533909E+02  0.29039154E+02  0.28560554E+02  0.28097282E+02
  0.27648537E+02  0.27213544E+02  0.26791551E+02  0.26381836E+02  0.25983703E+02
  0.25596488E+02  0.25219550E+02  0.24852284E+02  0.24494109E+02  0.24144478E+02
  0.23802871E+02  0.23468800E+02  0.23141803E+02  0.22821451E+02  0.22507340E+02
  0.22199096E+02  0.21896372E+02  0.21598848E+02  0.21306229E+02  0.21018245E+02
  0.20734652E+02  0.20455226E+02  0.20179769E+02  0.19908102E+02  0.19640067E+02
  0.19375524E+02  0.19114352E+02  0.18856448E+02  0.18601723E+02  0.18350104E+02
  0.18101530E+02  0.17855953E+02  0.17613337E+02  0.17373657E+02  0.17136894E+02
  0.16903039E+02  0.16672092E+02  0.16444056E+02  0.16218941E+02  0.15996761E+02
  0.15777534E+02  0.15561279E+02  0.15348019E+02  0.15137776E+02  0.14930576E+02
  0.14726441E+02  0.14525393E+02  0.14327455E+02  0.14132647E+02  0.13940986E+02
  0.13752486E+02  0.13567161E+02  0.13385020E+02  0.13206068E+02  0.13030308E+02
  0.12857738E+02  0.12688353E+02  0.12522144E+02  0.12359097E+02  0.12199195E+02
  0.12042417E+02  0.11888739E+02  0.11738131E+02  0.11590560E+02  0.11445992E+02
  0.11304387E+02  0.11165702E+02  0.11029892E+02  0.10896909E+02  0.10766703E+02
  0.10639221E+02  0.10514407E+02  0.10392206E+02  0.10272559E+02  0.10155407E+02
  0.10040689E+02  0.99283432E+01  0.98183081E+01  0.97105214E+01  0.96049207E+01
  0.95014438E+01  0.94000288E+01  0.93006144E+01  0.92031400E+01  0.91075459E+01
  0.90137735E+01  0.89217653E+01  0.88314651E+01  0.87428182E+01  0.86557713E+01
  0.85702730E+01  0.84862732E+01  0.84037238E+01  0.83225787E+01  0.82427933E+01
  0.81643250E+01  0.80871332E+01  0.80111790E+01  0.79364254E+01  0.78628372E+01
  0.77903809E+01  0.77190247E+01  0.76487386E+01  0.75794940E+01  0.75112638E+01
  0.74440224E+01  0.73777455E+01  0.73124103E+01  0.72479949E+01  0.71844788E+01
  0.71218422E+01  0.70600665E+01  0.69991338E+01  0.69390269E+01  0.68797295E+01
  0.68212254E+01  0.67634992E+01  0.67065359E+01  0.66503207E+01  0.65948391E+01
  0.65400768E+01  0.64860199E+01  0.64326543E+01  0.63799660E+01  0.63279414E+01
  0.62765664E+01  0.62258273E+01  0.61757101E+01  0.61262008E+01  0.60772854E+01
  0.60289496E+01  0.59811794E+01  0.59339605E+01  0.58872787E+01  0.58411195E+01
  0.57954690E+01  0.57503128E+01  0.57056370E+01  0.56614276E+01  0.56176709E+01
  0.55743533E+01  0.55314617E+01  0.54889829E+01  0.54469045E+01  0.54052140E+01
  0.53638997E+01  0.53229501E+01  0.52823544E+01  0.52421023E+01  0.52021841E+01
  0.51625907E+01  0.51233137E+01  0.50843455E+01  0.50456790E+01  0.50073081E+01
  0.49692272E+01  0.49314315E+01  0.48939173E+01  0.48566811E+01  0.48197205E+01
  0.47830339E+01  0.47466203E+01  0.47104794E+01  0.46746119E+01  0.46390188E+01
  0.46037020E+01  0.45686641E+01  0.45339081E+01  0.44994375E+01  0.44652566E+01
  0.44313698E+01  0.43977821E+01  0.43644987E+01  0.43315252E+01  0.42988672E+01
  0.42665306E+01  0.42345216E+01  0.42028461E+01  0.41715101E+01  0.41405196E+01
  0.41098805E+01  0.40795984E+01  0.40496787E+01  0.40201264E+01  0.39909462E+01
  0.39621425E+01  0.39337189E+01  0.39056788E+01  0.38780249E+01  0.38507594E+01
  0.38238837E+01  0.37973988E+01  0.37713049E+01  0.37456015E+01  0.37202874E+01
  0.36953609E+01  0.36708192E+01  0.36466590E+01  0.36228764E+01  0.35994665E+01
  0.35764238E+01  0.35537422E+01  0.35314149E+01  0.35094344E+01  0.34877925E+01
  0.34664808E+01  0.34454900E+01  0.34248106E+01  0.34044323E+01  0.33843448E+01
  0.33645372E+01  0.33449983E+01  0.33257168E+01  0.33066810E+01  0.32878793E+01
  0.32692997E+01  0.32509304E+01  0.32327595E+01  0.32147752E+01  0.31969659E+01
  0.31793201E+01  0.31618267E+01  0.31444745E+01  0.31272532E+01  0.31101524E+01
  0.30931624E+01  0.30762738E+01  0.30594778E+01  0.30427660E+01  0.30261307E+01
  0.30095646E+01  0.29930612E+01  0.29766145E+01  0.29602192E+01  0.29438707E+01
  0.29275650E+01  0.29112987E+01  0.28950692E+01  0.28788746E+01  0.28627135E+01
  0.28465851E+01  0.28304895E+01  0.28144270E+01  0.27983989E+01  0.27824067E+01
  0.27664526E+01  0.27505392E+01  0.27346698E+01  0.27188479E+01  0.27030774E+01
  0.26873626E+01  0.26717083E+01  0.26561193E+01  0.26406008E+01  0.26251580E+01
  0.26097965E+01  0.25945218E+01  0.25793394E+01  0.25642551E+01  0.25492743E+01
  0.25344027E+01  0.25196456E+01  0.25050083E+01  0.24904959E+01  0.24761133E+01
  0.24618652E+01  0.24477559E+01  0.24337895E+01  0.24199696E+01  0.24062998E+01
  0.23927829E+01  0.23794216E+01  0.23662181E+01  0.23531741E+01  0.23402911E+01
  0.23275699E+01  0.23150111E+01  0.23026148E+01  0.22903807E+01  0.22783079E+01
  0.22663954E+01  0.22546416E+01  0.22430445E+01  0.22316017E+01  0.22203107E+01
  0.22091683E+01  0.21981713E+01  0.21873160E+01  0.21765984E+01  0.21660145E+01
  0.21555599E+01  0.21452301E+01  0.21350203E+01  0.21249257E+01  0.21149415E+01
  0.21050626E+01  0.20952839E+01  0.20856005E+01  0.20760071E+01  0.20664988E+01
  0.20570706E+01  0.20477176E+01  0.20384351E+01  0.20292184E+01  0.20200629E+01
  0.20109645E+01  0.20019190E+01  0.19929225E+01  0.19839713E+01  0.19750621E+01
  0.19661916E+01  0.19573569E+01  0.19485554E+01  0.19397847E+01  0.19310426E+01
  0.19223273E+01  0.19136372E+01  0.19049710E+01  0.18963278E+01  0.18877069E+01
  0.18791076E+01  0.18705299E+01  0.18619738E+01  0.18534394E+01  0.18449274E+01
  0.18364383E+01  0.18279732E+01  0.18195329E+01  0.18111187E+01  0.18027320E+01
  0.17943743E+01  0.17860472E+01  0.17777524E+01  0.17694916E+01  0.17612668E+01
  0.17530799E+01  0.17449327E+01  0.17368272E+01  0.17287653E+01  0.17207491E+01
  0.17127802E+01  0.17048606E+01  0.16969919E+01  0.16891760E+01  0.16814143E+01
  0.16737084E+01  0.16660596E+01  0.16584693E+01  0.16509385E+01  0.16434685E+01
  0.16360599E+01  0.16287137E+01  0.16214303E+01  0.16142104E+01  0.16070542E+01
  0.15999619E+01  0.15929335E+01  0.15859690E+01  0.15790680E+01  0.15722303E+01
  0.15654554E+01  0.15587425E+01  0.15520911E+01  0.15455002E+01  0.15389689E+01
  0.15324963E+01  0.15260811E+01  0.15197223E+01  0.15134184E+01  0.15071683E+01
  0.15009705E+01  0.14948237E+01  0.14887262E+01  0.14826768E+01  0.14766739E+01
  0.14707160E+01  0.14648017E+01  0.14589295E+01  0.14530980E+01  0.14473057E+01
  0.14415512E+01  0.14358333E+01  0.14301507E+01  0.14245019E+01  0.14188860E+01
  0.14133017E+01  0.14077479E+01  0.14022237E+01  0.13967281E+01  0.13912602E+01
  0.13858193E+01  0.13804046E+01  0.13750155E+01  0.13696515E+01  0.13643120E+01
  0.13589965E+01  0.13537048E+01  0.13484365E+01  0.13431913E+01  0.13379691E+01
  0.13327697E+01  0.13275930E+01  0.13224390E+01  0.13173078E+01  0.13121994E+01
  0.13071139E+01  0.13020514E+01  0.12970121E+01  0.12919961E+01  0.12870037E+01
  0.12820351E+01  0.12770905E+01  0.12721701E+01  0.12672742E+01  0.12624029E+01
  0.12575565E+01  0.12527352E+01  0.12479393E+01  0.12431689E+01  0.12384242E+01
  0.12337055E+01  0.12290128E+01  0.12243464E+01  0.12197063E+01  0.12150925E+01
  0.12105053E+01  0.12059446E+01  0.12014104E+01  0.11969027E+01  0.11924215E+01
  0.11879667E+01  0.11835384E+01  0.11791363E+01  0.11747605E+01  0.11704107E+01
  0.11660868E+01  0.11617887E+01  0.11575162E+01  0.11532691E+01  0.11490472E+01
  0.11448503E+01  0.11406781E+01  0.11365305E+01  0.11324072E+01  0.11283080E+01
  0.11242326E+01  0.11201808E+01  0.11161523E+01  0.11121471E+01  0.11081647E+01
  0.11042050E+01  0.11002678E+01  0.10963528E+01  0.10924599E+01  0.10885888E+01
  0.10847392E+01  0.10809111E+01  0.10771042E+01  0.10733184E+01  0.10695534E+01
  0.10658091E+01  0.10620854E+01  0.10583820E+01  0.10546989E+01  0.10510358E+01
  0.10473927E+01  0.10437694E+01  0.10401657E+01  0.10365815E+01  0.10330167E+01
  0.10294711E+01  0.10259446E+01  0.10224369E+01  0.10189481E+01  0.10154778E+01
  0.10120261E+01  0.10085927E+01  0.10051774E+01  0.10017802E+01  0.99840075E+00
  0.99503900E+00  0.99169471E+00  0.98836770E+00  0.98505778E+00  0.98176473E+00
  0.97848836E+00  0.97522847E+00  0.97198484E+00  0.96875726E+00  0.96554554E+00
  0.96234945E+00  0.95916878E+00  0.95600332E+00  0.95285285E+00  0.94971716E+00
  0.94659604E+00  0.94348927E+00  0.94039664E+00  0.93731797E+00  0.93425304E+00
  0.93120169E+00  0.92816373E+00  0.92513902E+00  0.92212739E+00  0.91912872E+00
  0.91614288E+00  0.91316975E+00  0.91020922E+00  0.90726119E+00  0.90432560E+00
  0.90140236E+00  0.89849143E+00  0.89559275E+00  0.89270630E+00  0.88983207E+00
  0.88697006E+00  0.88412029E+00  0.88128279E+00  0.87845760E+00  0.87564476E+00
  0.87284435E+00  0.87005642E+00  0.86728104E+00  0.86451829E+00  0.86176825E+00
  0.85903100E+00  0.85630663E+00  0.85359522E+00  0.85089688E+00  0.84821169E+00
  0.84553974E+00  0.84288113E+00  0.84023592E+00  0.83760421E+00  0.83498606E+00
  0.83238152E+00  0.82979064E+00  0.82721344E+00  0.82464996E+00  0.82210020E+00
  0.81956415E+00  0.81704179E+00  0.81453310E+00  0.81203803E+00  0.80955651E+00
  0.80708849E+00  0.80463387E+00  0.80219256E+00  0.79976442E+00  0.79734934E+00
  0.79494715E+00  0.79255769E+00  0.79018079E+00  0.78781624E+00  0.78546386E+00
  0.78312343E+00  0.78079473E+00  0.77847754E+00  0.77617163E+00  0.77387677E+00
  0.77159272E+00  0.76931924E+00  0.76705610E+00  0.76480304E+00  0.76255982E+00
  0.76032621E+00  0.75810196E+00  0.75588684E+00  0.75368063E+00  0.75148311E+00
  0.74929407E+00  0.74711333E+00  0.74494071E+00  0.74277604E+00  0.74061917E+00
  0.73846995E+00  0.73632828E+00  0.73419402E+00  0.73206710E+00  0.72994741E+00
  0.72783490E+00  0.72572952E+00  0.72363122E+00  0.72153999E+00  0.71945582E+00
  0.71737874E+00  0.71530877E+00  0.71324595E+00  0.71119035E+00  0.70914203E+00
  0.70710108E+00  0.70506757E+00  0.70304160E+00  0.70102328E+00  0.69901271E+00
  0.69701000E+00  0.69501527E+00  0.69302863E+00  0.69105022E+00  0.68908014E+00
  0.68711853E+00  0.68516551E+00  0.68322120E+00  0.68128570E+00  0.67935912E+00
  0.67744156E+00  0.67553310E+00  0.67363382E+00  0.67174378E+00  0.66986303E+00
  0.66799161E+00  0.66612956E+00  0.66427688E+00  0.66243359E+00  0.66059968E+00
  0.65877513E+00  0.65695991E+00  0.65515397E+00  0.65335725E+00  0.65156967E+00
  0.64979113E+00  0.64802155E+00  0.64626079E+00  0.64450873E+00  0.64276523E+00
  0.64103015E+00  0.63930333E+00  0.63758460E+00  0.63587381E+00  0.63417078E+00
  0.63247534E+00  0.63078731E+00  0.62910651E+00  0.62743275E+00  0.62576585E+00
  0.62410562E+00  0.62245189E+00  0.62080446E+00  0.61916317E+00  0.61752784E+00
  0.61589833E+00  0.61427446E+00  0.61265612E+00  0.61104316E+00  0.60943546E+00
  0.60783292E+00  0.60623543E+00  0.60464290E+00  0.60305525E+00  0.60147241E+00
  0.59989434E+00  0.59832097E+00  0.59675228E+00  0.59518825E+00  0.59362887E+00
  0.59207415E+00  0.59052412E+00  0.58897879E+00  0.58743822E+00  0.58590245E+00
  0.58437154E+00  0.58284556E+00  0.58132457E+00  0.57980866E+00  0.57829790E+00
  0.57679237E+00  0.57529217E+00  0.57379738E+00  0.57230811E+00  0.57082444E+00
  0.56934648E+00  0.56787431E+00  0.56640804E+00  0.56494775E+00  0.56349353E+00
  0.56204545E+00  0.56060358E+00  0.55916799E+00  0.55773874E+00  0.55631586E+00
  0.55489939E+00  0.55348937E+00  0.55208582E+00  0.55068876E+00  0.54929817E+00
  0.54791407E+00  0.54653644E+00  0.54516525E+00  0.54380046E+00  0.54244203E+00
  0.54108991E+00  0.53974401E+00  0.53840427E+00  0.53707061E+00  0.53574292E+00
  0.53442110E+00  0.53310506E+00  0.53179468E+00  0.53048985E+00  0.52919045E+00
  0.52789637E+00  0.52660748E+00  0.52532365E+00  0.52404475E+00  0.52277066E+00
  0.52150125E+00  0.52023639E+00  0.51897595E+00  0.51771981E+00  0.51646784E+00
  0.51521995E+00  0.51397602E+00  0.51273596E+00  0.51149967E+00  0.51026706E+00
  0.50903807E+00  0.50781262E+00  0.50659065E+00  0.50537211E+00  0.50415694E+00
  0.50294510E+00  0.50173657E+00  0.50053132E+00  0.49932935E+00  0.49813064E+00
  0.49693520E+00  0.49574306E+00  0.49455423E+00  0.49336875E+00  0.49218666E+00
  0.49100800E+00  0.48983281E+00  0.48866116E+00  0.48749310E+00  0.48632869E+00
  0.48516798E+00  0.48401106E+00  0.48285798E+00  0.48170881E+00  0.48056364E+00
  0.47942252E+00  0.47828554E+00  0.47715277E+00  0.47602426E+00  0.47490010E+00
  0.47378033E+00  0.47266501E+00  0.47155419E+00  0.47044791E+00  0.46934621E+00
  0.46824912E+00  0.46715666E+00  0.46606885E+00  0.46498571E+00  0.46390724E+00
  0.46283344E+00  0.46176430E+00  0.46069982E+00  0.45963996E+00  0.45858469E+00
  0.45753397E+00  0.45648776E+00  0.45544600E+00  0.45440863E+00  0.45337559E+00
  0.45234679E+00  0.45132216E+00  0.45030163E+00  0.44928511E+00  0.44827252E+00
  0.44726376E+00  0.44625875E+00  0.44525739E+00  0.44425959E+00  0.44326526E+00
  0.44227429E+00  0.44128658E+00  0.44030205E+00  0.43932059E+00  0.43834212E+00
  0.43736656E+00  0.43639381E+00  0.43542380E+00  0.43445647E+00  0.43349175E+00
  0.43252957E+00  0.43156989E+00  0.43061264E+00  0.42965779E+00  0.42870530E+00
  0.42775513E+00  0.42680726E+00  0.42586166E+00  0.42491832E+00  0.42397725E+00
  0.42303844E+00  0.42210189E+00  0.42116764E+00  0.42023571E+00  0.41930611E+00
  0.41837889E+00  0.41745408E+00  0.41653173E+00  0.41561187E+00  0.41469456E+00
  0.41377985E+00  0.41286778E+00  0.41195842E+00  0.41105183E+00  0.41014806E+00
  0.40924717E+00  0.40834924E+00  0.40745432E+00  0.40656247E+00  0.40567376E+00
  0.40478823E+00  0.40390594E+00  0.40302693E+00  0.40215126E+00  0.40127896E+00
  0.40041006E+00  0.39954460E+00  0.39868260E+00  0.39782409E+00  0.39696909E+00
  0.39611760E+00  0.39526964E+00  0.39442520E+00  0.39358429E+00  0.39274688E+00
  0.39191297E+00  0.39108252E+00  0.39025549E+00  0.38943187E+00  0.38861159E+00
  0.38779461E+00  0.38698089E+00  0.38617036E+00  0.38536297E+00  0.38455866E+00
  0.38375735E+00  0.38295899E+00  0.38216350E+00  0.38137080E+00  0.38058082E+00
  0.37979349E+00  0.37900871E+00  0.37822642E+00  0.37744653E+00  0.37666896E+00
  0.37589363E+00  0.37512049E+00  0.37434944E+00  0.37358043E+00  0.37281339E+00
  0.37204826E+00  0.37128498E+00  0.37052351E+00  0.36976378E+00  0.36900575E+00
  0.36824938E+00  0.36749464E+00  0.36674148E+00  0.36598989E+00  0.36523984E+00
  0.36449133E+00  0.36374433E+00  0.36299887E+00  0.36225493E+00  0.36151253E+00
  0.36077168E+00  0.36003240E+00  0.35929472E+00  0.35855867E+00  0.35782426E+00
  0.35709154E+00  0.35636054E+00  0.35563132E+00  0.35490390E+00  0.35417834E+00
  0.35345470E+00  0.35273302E+00  0.35201336E+00  0.35129578E+00  0.35058034E+00
  0.34986708E+00  0.34915606E+00  0.34844733E+00  0.34774094E+00  0.34703694E+00
 gradient corrections used for XC
           5
 core charge-density (partial)
  0.10366049E+01  0.10361942E+01  0.10349632E+01  0.10329148E+01  0.10300536E+01
  0.10263865E+01  0.10219219E+01  0.10166703E+01  0.10106438E+01  0.10038563E+01
  0.99632345E+00  0.98806236E+00  0.97909185E+00  0.96943215E+00  0.95910490E+00
  0.94813307E+00  0.93654084E+00  0.92435354E+00  0.91159756E+00  0.89830021E+00
  0.88448968E+00  0.87019487E+00  0.85544537E+00  0.84027129E+00  0.82470318E+00
  0.80877195E+00  0.79250872E+00  0.77594477E+00  0.75911143E+00  0.74203995E+00
  0.72476146E+00  0.70730684E+00  0.68970664E+00  0.67199102E+00  0.65418964E+00
  0.63633162E+00  0.61844543E+00  0.60055884E+00  0.58269889E+00  0.56489177E+00
  0.54716283E+00  0.52953648E+00  0.51203621E+00  0.49468448E+00  0.47750275E+00
  0.46051141E+00  0.44372978E+00  0.42717609E+00  0.41086747E+00  0.39481991E+00
  0.37904830E+00  0.36356640E+00  0.34838685E+00  0.33352119E+00  0.31897983E+00
  0.30477213E+00  0.29090636E+00  0.27738972E+00  0.26422842E+00  0.25142764E+00
  0.23899158E+00  0.22692353E+00  0.21522581E+00  0.20389990E+00  0.19294641E+00
  0.18236513E+00  0.17215510E+00  0.16231459E+00  0.15284119E+00  0.14373180E+00
  0.13498271E+00  0.12658964E+00  0.11854772E+00  0.11085161E+00  0.10349547E+00
  0.96473052E-01  0.89777685E-01  0.83402355E-01  0.77339722E-01  0.71582156E-01
  0.66121773E-01  0.60950470E-01  0.56059954E-01  0.51441775E-01  0.47087359E-01
  0.42988029E-01  0.39135042E-01  0.35519609E-01  0.32132923E-01  0.28966182E-01
  0.26010612E-01  0.23257488E-01  0.20698154E-01  0.18324041E-01  0.16126689E-01
  0.14097755E-01  0.12229035E-01  0.10512474E-01  0.89401812E-02  0.75044381E-02
  0.61977109E-02  0.50126589E-02  0.39421427E-02  0.29792305E-02  0.21172045E-02
  0.13495659E-02  0.67003846E-03  0.72571862E-04 -0.44865606E-03 -0.89923793E-03
 -0.12845362E-02 -0.16096830E-02 -0.18795812E-02 -0.20989057E-02 -0.22721051E-02
 -0.24034048E-02 -0.24968094E-02 -0.25561070E-02 -0.25848723E-02 -0.25864717E-02
 -0.25640678E-02 -0.25206242E-02 -0.24589114E-02 -0.23815118E-02 -0.22908258E-02
 -0.21890780E-02 -0.20783231E-02 -0.19604522E-02 -0.18371995E-02 -0.17101485E-02
 -0.15807385E-02 -0.14502714E-02 -0.13199183E-02 -0.11907254E-02 -0.10636215E-02
 -0.93942349E-03 -0.81884339E-03 -0.70249425E-03 -0.59089647E-03 -0.48448379E-03
 -0.38360919E-03 -0.28855071E-03 -0.19951700E-03 -0.11665278E-03 -0.40044119E-04
  0.30276468E-04  0.94325137E-04  0.15216198E-03  0.20388653E-03  0.24963339E-03
  0.28956818E-03  0.32388354E-03  0.35279547E-03  0.37653978E-03  0.39536881E-03
  0.40954824E-03  0.41935426E-03  0.42507078E-03  0.42698695E-03  0.42539475E-03
  0.42058689E-03  0.41285483E-03  0.40248690E-03  0.38976678E-03  0.37497192E-03
  0.35837229E-03  0.34022920E-03  0.32079430E-03  0.30030866E-03  0.27900209E-03
  0.25709249E-03  0.23478533E-03  0.21227333E-03  0.18973613E-03  0.16734015E-03
  0.14523847E-03  0.12357088E-03  0.10246391E-03  0.82031053E-04  0.62372921E-04
  0.43577577E-04  0.25720861E-04  0.88667775E-05 -0.69320687E-05 -0.21634002E-04
 -0.35207771E-04 -0.47632021E-04 -0.58894738E-04 -0.68992678E-04 -0.77930784E-04
 -0.85721589E-04 -0.92384619E-04 -0.97945791E-04 -0.10243682E-03 -0.10589461E-03
 -0.10836069E-03 -0.10988063E-03 -0.11050347E-03 -0.11028120E-03 -0.10926819E-03
 -0.10752075E-03 -0.10509657E-03 -0.10205430E-03 -0.98453125E-04 -0.94352293E-04
 -0.89810783E-04 -0.84886913E-04 -0.79638012E-04 -0.74120114E-04 -0.68387670E-04
 -0.62493300E-04 -0.56487559E-04 -0.50418744E-04 -0.44332712E-04 -0.38272731E-04
 -0.32279362E-04 -0.26390350E-04 -0.20640553E-04 -0.15061885E-04 -0.96832813E-05
 -0.45306859E-05  0.37294154E-06  0.50076029E-05  0.93562207E-05  0.13404582E-04
  0.17141266E-04  0.20557565E-04  0.23647380E-04  0.26407124E-04  0.28835598E-04
  0.30933871E-04  0.32705147E-04  0.34154630E-04  0.35289377E-04  0.36118159E-04
  0.36651306E-04  0.36900561E-04  0.36878930E-04  0.36600528E-04  0.36080432E-04
  0.35334536E-04  0.34379403E-04  0.33232126E-04  0.31910189E-04  0.30431339E-04
  0.28813455E-04  0.27074429E-04  0.25232050E-04  0.23303898E-04  0.21307237E-04
  0.19258926E-04  0.17175330E-04  0.15072237E-04  0.12964791E-04  0.10867423E-04
  0.87937974E-05  0.67567580E-05  0.47682902E-05  0.28394846E-05  0.98050925E-06
 -0.79941010E-06 -0.24920040E-05 -0.40899661E-05 -0.55869542E-05 -0.69775847E-05
 -0.82574217E-05 -0.94229610E-05 -0.10471609E-04 -0.11401655E-04 -0.12212244E-04
 -0.12903341E-04 -0.13475693E-04 -0.13930790E-04 -0.14270820E-04 -0.14498622E-04
 -0.14617644E-04 -0.14631888E-04 -0.14545861E-04 -0.14364526E-04 -0.14093246E-04
 -0.13737737E-04 -0.13304012E-04 -0.12798332E-04 -0.12227154E-04 -0.11597081E-04
 -0.10914816E-04 -0.10187113E-04 -0.94207325E-05 -0.86223979E-05 -0.77987547E-05
 -0.69563315E-05 -0.61015034E-05 -0.52404582E-05 -0.43791649E-05 -0.35233448E-05
 -0.26784457E-05 -0.18496189E-05 -0.10416985E-05 -0.25918385E-06  0.49377481E-06
  0.12133887E-05  0.18962397E-05  0.25392866E-05  0.31398694E-05  0.36957106E-05
  0.42049142E-05  0.46659624E-05  0.50777097E-05  0.54393758E-05  0.57505359E-05
  0.60111087E-05  0.62213441E-05  0.63818079E-05  0.64933662E-05  0.65571678E-05
  0.65746264E-05  0.65474005E-05  0.64773741E-05  0.63666357E-05  0.62174572E-05
  0.60322723E-05  0.58136553E-05  0.55642988E-05  0.52869926E-05  0.49846021E-05
  0.46600472E-05  0.43162819E-05  0.39562743E-05  0.35829868E-05  0.31993581E-05
  0.28082851E-05  0.24126062E-05  0.20150852E-05  0.16183969E-05  0.12251132E-05
  0.83769042E-06  0.45845814E-06  0.89608932E-07 -0.26681056E-06 -0.60890737E-06
 -0.93494863E-06 -0.12433669E-05 -0.15327640E-05 -0.18019141E-05 -0.20497653E-05
 -0.22754399E-05 -0.24782341E-05 -0.26576162E-05 -0.28132240E-05 -0.29448609E-05
 -0.30524919E-05 -0.31362375E-05 -0.31963683E-05 -0.32332974E-05 -0.32475731E-05
 -0.32398712E-05 -0.32109856E-05 -0.31618197E-05 -0.30933768E-05 -0.30067506E-05
 -0.29031145E-05 -0.27837124E-05 -0.26498476E-05 -0.25028731E-05 -0.23441811E-05
 -0.21751930E-05 -0.19973490E-05 -0.18120992E-05 -0.16208930E-05 -0.14251708E-05
 -0.12263548E-05 -0.10258405E-05 -0.82498900E-06 -0.62511919E-06 -0.42750099E-06
 -0.23334878E-06 -0.43815532E-07  0.14001252E-06  0.31712063E-06  0.48656966E-06
  0.64749962E-06  0.79913258E-06  0.94077502E-06  0.10718195E-05  0.11917458E-05
  0.13001215E-05  0.13966019E-05  0.14809294E-05  0.15529327E-05  0.16125245E-05
  0.16597004E-05  0.16945356E-05  0.17171821E-05  0.17278656E-05  0.17268817E-05
  0.17145915E-05  0.16914181E-05  0.16578411E-05  0.16143925E-05  0.15616515E-05
  0.15002393E-05  0.14308142E-05  0.13540659E-05  0.12707104E-05  0.11814847E-05
  0.10871415E-05  0.98844383E-06  0.88615997E-06  0.78105849E-06  0.67390330E-06
  0.56544899E-06  0.45643627E-06  0.34758771E-06  0.23960372E-06  0.13315872E-06
  0.28897634E-07 -0.72567311E-07 -0.17065954E-06 -0.26484076E-06 -0.35461321E-06
 -0.43952170E-06 -0.51915527E-06 -0.59314846E-06 -0.66118242E-06 -0.72298549E-06
 -0.77833368E-06 -0.82705064E-06 -0.86900751E-06 -0.90412233E-06 -0.93235925E-06
 -0.95372748E-06 -0.96827994E-06 -0.97611173E-06 -0.97735830E-06 -0.97219352E-06
 -0.96082746E-06 -0.94350408E-06 -0.92049876E-06 -0.89211565E-06 -0.85868498E-06
 -0.82056022E-06 -0.77811523E-06 -0.73174135E-06 -0.68184437E-06 -0.62884165E-06
 -0.57315911E-06 -0.51522830E-06 -0.45548353E-06 -0.39435907E-06 -0.33228631E-06
 -0.26969123E-06 -0.20699171E-06 -0.14459522E-06 -0.82896434E-07 -0.22275111E-07
  0.36905935E-07  0.94302672E-07  0.14959154E-06  0.20247097E-06  0.25266269E-06
  0.29991289E-06  0.34399323E-06  0.38470153E-06  0.42186245E-06  0.45532789E-06
  0.48497717E-06  0.51071715E-06  0.53248207E-06  0.55023325E-06  0.56395868E-06
  0.57367239E-06  0.57941369E-06  0.58124626E-06  0.57925716E-06  0.57355567E-06
  0.56427201E-06  0.55155603E-06  0.53557571E-06  0.51651569E-06  0.49457564E-06
  0.46996864E-06  0.44291950E-06  0.41366300E-06  0.38244222E-06  0.34950673E-06
  0.31511088E-06  0.27951207E-06  0.24296903E-06  0.20574016E-06  0.16808189E-06
  0.13024712E-06  0.92483676E-07  0.55032897E-07  0.18128239E-07 -0.18006002E-07
 -0.53155888E-07 -0.87118945E-07 -0.11970517E-06 -0.15073793E-06 -0.18005477E-06
 -0.20750806E-06 -0.23296566E-06 -0.25631127E-06 -0.27744491E-06 -0.29628306E-06
 -0.31275885E-06 -0.32682210E-06 -0.33843920E-06 -0.34759295E-06 -0.35428230E-06
 -0.35852195E-06 -0.36034188E-06 -0.35978684E-06 -0.35691568E-06 -0.35180066E-06
 -0.34452670E-06 -0.33519051E-06 -0.32389972E-06 -0.31077196E-06 -0.29593387E-06
 -0.27952007E-06 -0.26167215E-06 -0.24253761E-06 -0.22226876E-06 -0.20102170E-06
 -0.17895518E-06 -0.15622958E-06 -0.13300582E-06 -0.10944439E-06 -0.85704243E-07
 -0.61941926E-07 -0.38310574E-07 -0.14959045E-07  0.79689359E-08  0.30335570E-07
  0.52009726E-07  0.72867618E-07  0.92793431E-07  0.11167988E-06  0.12942868E-06
  0.14595099E-06  0.16116778E-06  0.17501007E-06  0.18741918E-06  0.19834686E-06
  0.20775538E-06  0.21561752E-06  0.22191652E-06  0.22664596E-06  0.22980959E-06
  0.23142103E-06  0.23150354E-06  0.23008960E-06  0.22722057E-06  0.22294616E-06
  0.21732400E-06  0.21041905E-06  0.20230309E-06  0.19305405E-06  0.18275545E-06
  0.17149569E-06  0.15936746E-06  0.14646697E-06  0.13289333E-06  0.11874784E-06
  0.10413332E-06  0.89153374E-07  0.73911785E-07  0.58511802E-07  0.43055518E-07
  0.27643244E-07  0.12372911E-07 -0.26605034E-08 -0.17365512E-07 -0.31654628E-07
 -0.45444836E-07 -0.58658022E-07 -0.71221372E-07 -0.83067720E-07 -0.94135858E-07
 -0.10437080E-06 -0.11372401E-06 -0.12215355E-06 -0.12962427E-06 -0.13610780E-06
 -0.14158270E-06 -0.14603434E-06 -0.14945497E-06 -0.15184352E-06 -0.15320555E-06
 -0.15355304E-06 -0.15290421E-06 -0.15128325E-06 -0.14872006E-06 -0.14524996E-06
 -0.14091333E-06 -0.13575526E-06 -0.12982519E-06 -0.12317649E-06 -0.11586604E-06
 -0.10795381E-06 -0.99502410E-07 -0.90576662E-07 -0.81243111E-07 -0.71569593E-07
 -0.61624773E-07 -0.51477691E-07 -0.41197321E-07 -0.30852131E-07 -0.20509661E-07
 -0.10236112E-07 -0.95954098E-10  0.98484511E-08  0.19537203E-07  0.28913194E-07
  0.37922419E-07  0.46514254E-07  0.54641717E-07  0.62261690E-07  0.69335122E-07
  0.75827194E-07  0.81707464E-07  0.86949972E-07  0.91533316E-07  0.95440709E-07
  0.98659989E-07  0.10118361E-06  0.10300861E-06  0.10413652E-06  0.10457330E-06
  0.10432920E-06  0.10341860E-06  0.10185988E-06  0.99675176E-07  0.96890222E-07
  0.93534081E-07  0.89638913E-07  0.85239713E-07  0.80374032E-07  0.75081694E-07
  0.69404500E-07  0.63385927E-07  0.57070819E-07  0.50505080E-07  0.43735360E-07
  0.36808749E-07  0.29772466E-07  0.22673560E-07  0.15558616E-07  0.84734634E-08
  0.14629037E-08 -0.54295575E-08 -0.12161961E-07 -0.18694135E-07 -0.24987911E-07
 -0.31007336E-07 -0.36718859E-07 -0.42091496E-07 -0.47096984E-07 -0.51709911E-07
 -0.55907822E-07 -0.59671313E-07 -0.62984096E-07 -0.65833046E-07 -0.68208229E-07
 -0.70102908E-07 -0.71513527E-07 -0.72439677E-07 -0.72884044E-07 -0.72852334E-07
 -0.72353185E-07 -0.71398061E-07 -0.70001126E-07 -0.68179111E-07 -0.65951156E-07
 -0.63338652E-07 -0.60365063E-07 -0.57055740E-07 -0.53437730E-07 -0.49539571E-07
 -0.45391085E-07 -0.41023172E-07 -0.36467586E-07 -0.31756726E-07 -0.26923418E-07
 -0.22000695E-07 -0.17021589E-07 -0.12018919E-07 -0.70250854E-08 -0.20718755E-08
  0.28097320E-08  0.75897467E-08  0.12239341E-07  0.16731013E-07  0.21038736E-07
  0.25138104E-07  0.29006452E-07  0.32622974E-07  0.35968822E-07  0.39027195E-07
  0.41783405E-07  0.44224940E-07  0.46341505E-07  0.48125046E-07  0.49569769E-07
  0.50672135E-07  0.51430844E-07  0.51846810E-07  0.51923112E-07  0.51664941E-07
  0.51079533E-07  0.50176087E-07  0.48965674E-07  0.47461135E-07  0.45676972E-07
  0.43629228E-07  0.41335355E-07  0.38814088E-07  0.36085298E-07  0.33169849E-07
  0.30089451E-07  0.26866507E-07  0.23523959E-07  0.20085133E-07  0.16573589E-07
  0.13012960E-07  0.94268070E-08  0.58384696E-08  0.22709195E-08 -0.12533778E-08
 -0.47125977E-08 -0.80856845E-08 -0.11352472E-07 -0.14493800E-07 -0.17491613E-07
 -0.20329065E-07 -0.22990601E-07 -0.25462038E-07 -0.27730631E-07 -0.29785131E-07
 -0.31615836E-07 -0.33214622E-07 -0.34574971E-07 -0.35691991E-07 -0.36562415E-07
 -0.37184601E-07 -0.37558511E-07 -0.37685692E-07 -0.37569236E-07 -0.37213738E-07
 -0.36625243E-07 -0.35811185E-07 -0.34780316E-07 -0.33542631E-07 -0.32109287E-07
 -0.30492509E-07 -0.28705501E-07 -0.26762342E-07 -0.24677887E-07 -0.22467659E-07
 -0.20147737E-07 -0.17734652E-07 -0.15245267E-07 -0.12696673E-07 -0.10106070E-07
 -0.74906594E-08 -0.48675354E-08 -0.22535764E-08  0.33465815E-09  0.28810276E-08
  0.53699066E-08  0.77862760E-08  0.10115809E-07  0.12344952E-07  0.14460997E-07
  0.16452152E-07  0.18307600E-07  0.20017553E-07  0.21573299E-07  0.22967240E-07
  0.24192924E-07  0.25245069E-07  0.26119577E-07  0.26813546E-07  0.27325265E-07
  0.27654209E-07  0.27801027E-07  0.27767518E-07  0.27556601E-07  0.27172280E-07
  0.26619608E-07  0.25904628E-07  0.25034332E-07  0.24016594E-07  0.22860108E-07
  0.21574326E-07  0.20169380E-07  0.18656011E-07  0.17045491E-07  0.15349545E-07
  0.13580265E-07  0.11750036E-07  0.98714452E-08  0.79572028E-08  0.60200592E-08
  0.40727231E-08  0.21277815E-08  0.19762154E-09 -0.17056454E-08 -0.35702561E-08
 -0.53848657E-08 -0.71386130E-08 -0.88211829E-08 -0.10422864E-07 -0.11934600E-07
 -0.13348040E-07 -0.14655580E-07 -0.15850401E-07 -0.16926499E-07 -0.17878714E-07
 -0.18702748E-07 -0.19395184E-07 -0.19953490E-07 -0.20376024E-07 -0.20662034E-07
 -0.20811647E-07 -0.20825858E-07 -0.20706508E-07 -0.20456265E-07 -0.20078590E-07
 -0.19577708E-07 -0.18958567E-07 -0.18226799E-07 -0.17388673E-07 -0.16451046E-07
 -0.15421311E-07 -0.14307346E-07 -0.13117450E-07 -0.11860291E-07 -0.10544843E-07
 -0.91803251E-08 -0.77761377E-08 -0.63418034E-08 -0.48869030E-08 -0.34210139E-08
 -0.19536495E-08 -0.49419996E-09  0.94812622E-09  0.23643578E-08  0.37458147E-08
  0.50841587E-08  0.63714422E-08  0.76001529E-08  0.87632553E-08  0.98542294E-08
  0.10867105E-07  0.11796490E-07  0.12637600E-07  0.13386278E-07  0.14039013E-07
  0.14592953E-07  0.15045915E-07  0.15396387E-07  0.15643533E-07  0.15787185E-07
  0.15827836E-07  0.15766628E-07  0.15605339E-07  0.15346356E-07  0.14992659E-07
  0.14547789E-07  0.14015820E-07  0.13401326E-07  0.12709345E-07  0.11945338E-07
  0.11115154E-07  0.10224983E-07  0.92813143E-08  0.82908904E-08  0.72606610E-08
  0.61977363E-08  0.51093392E-08  0.40027585E-08  0.28853010E-08  0.17642457E-08
  0.64679694E-09 -0.45995941E-09 -0.15491001E-08 -0.26139058E-08 -0.36479017E-08
 -0.46448947E-08 -0.55990094E-08 -0.65047214E-08 -0.73568872E-08 -0.81507724E-08
 -0.88820761E-08 -0.95469524E-08 -0.10142029E-07 -0.10664424E-07 -0.11111752E-07
 -0.11482142E-07 -0.11774235E-07 -0.11987187E-07 -0.12120672E-07 -0.12174872E-07
 -0.12150474E-07 -0.12048653E-07 -0.11871065E-07 -0.11619826E-07 -0.11297493E-07
 -0.10907044E-07 -0.10451851E-07 -0.99356545E-08 -0.93625369E-08 -0.87368892E-08
 -0.80633805E-08 -0.73469249E-08 -0.65926468E-08 -0.58058456E-08 -0.49919599E-08
 -0.41565311E-08 -0.33051672E-08 -0.24435056E-08 -0.15771775E-08 -0.71177205E-09
  0.14719863E-09  0.99433363E-09  0.18243760E-08  0.26322444E-08  0.34130631E-08
  0.41621904E-08  0.48752453E-08  0.55481317E-08  0.61770611E-08  0.67585727E-08
  0.72895515E-08  0.77672432E-08  0.81892676E-08  0.85536291E-08  0.88587241E-08
  0.91033468E-08  0.92866914E-08  0.94083525E-08  0.94683227E-08  0.94669877E-08
  0.94051184E-08  0.92838622E-08  0.91047301E-08  0.88695831E-08  0.85806157E-08
  0.82403383E-08  0.78515568E-08  0.74173513E-08  0.69410532E-08  0.64262212E-08
  0.58766150E-08  0.52961701E-08  0.46889696E-08  0.40592170E-08  0.34112079E-08
  0.27493015E-08  0.20778921E-08  0.14013810E-08  0.72414785E-09  0.50523823E-10
 -0.61523588E-09 -0.12689779E-08 -0.19066760E-08 -0.25244549E-08 -0.31186135E-08
 -0.36856457E-08 -0.42222607E-08 -0.47254016E-08 -0.51922611E-08 -0.56202973E-08
 -0.60072459E-08 -0.63511320E-08 -0.66502783E-08 -0.69033128E-08 -0.71091738E-08
 -0.72671126E-08 -0.73766948E-08 -0.74377993E-08 -0.74506149E-08 -0.74156360E-08
 -0.73336555E-08 -0.72057562E-08 -0.70333002E-08 -0.68179177E-08 -0.65614925E-08
 -0.62661477E-08 -0.59342291E-08 -0.55682875E-08 -0.51710606E-08 -0.47454525E-08
 -0.42945142E-08 -0.38214219E-08 -0.33294554E-08 -0.28219763E-08 -0.23024053E-08
 kinetic energy density (partial)
  0.43206073E+02  0.43188829E+02  0.43137138E+02  0.43051122E+02  0.42930983E+02
  0.42777005E+02  0.42589548E+02  0.42369053E+02  0.42116034E+02  0.41831078E+02
  0.41514844E+02  0.41168062E+02  0.40791523E+02  0.40386083E+02  0.39952658E+02
  0.39492219E+02  0.39005787E+02  0.38494433E+02  0.37959273E+02  0.37401459E+02
  0.36822184E+02  0.36222668E+02  0.35604160E+02  0.34967932E+02  0.34315274E+02
  0.33647490E+02  0.32965894E+02  0.32271805E+02  0.31566544E+02  0.30851430E+02
  0.30127773E+02  0.29396876E+02  0.28660025E+02  0.27918491E+02  0.27173520E+02
  0.26426339E+02  0.25678145E+02  0.24930105E+02  0.24183354E+02  0.23438992E+02
  0.22698082E+02  0.21961649E+02  0.21230676E+02  0.20506102E+02  0.19788827E+02
  0.19079701E+02  0.18379531E+02  0.17689077E+02  0.17009053E+02  0.16340122E+02
  0.15682904E+02  0.15037969E+02  0.14405839E+02  0.13786989E+02  0.13181850E+02
  0.12590804E+02  0.12014189E+02  0.11452298E+02  0.10905381E+02  0.10373646E+02
  0.98572604E+01  0.93563499E+01  0.88710031E+01  0.84012712E+01  0.79471698E+01
  0.75086805E+01  0.70857522E+01  0.66783032E+01  0.62862222E+01  0.59093705E+01
  0.55475833E+01  0.52006715E+01  0.48684234E+01  0.45506061E+01  0.42469676E+01
  0.39572378E+01  0.36811307E+01  0.34183454E+01  0.31685682E+01  0.29314735E+01
  0.27067257E+01  0.24939805E+01  0.22928860E+01  0.21030844E+01  0.19242129E+01
  0.17559052E+01  0.15977926E+01  0.14495049E+01  0.13106716E+01  0.11809230E+01
  0.10598909E+01  0.94720964E+00  0.84251684E+00  0.74545423E+00  0.65566832E+00
  0.57281107E+00  0.49654049E+00  0.42652122E+00  0.36242498E+00  0.30393108E+00
  0.25072678E+00  0.20250765E+00  0.15897791E+00  0.11985066E+00  0.84848118E-01
  0.53701829E-01  0.26152768E-01  0.19514751E-02 -0.19141879E-01 -0.37357453E-01
 -0.52915724E-01 -0.66027510E-01 -0.76894020E-01 -0.85706925E-01 -0.92648462E-01
 -0.97891549E-01 -0.10159993E+00 -0.10392834E+00 -0.10502268E+00 -0.10502020E+00
 -0.10404973E+00 -0.10223188E+00 -0.99679270E-01 -0.96496806E-01 -0.92781884E-01
 -0.88624675E-01 -0.84108379E-01 -0.79309494E-01 -0.74298084E-01 -0.69138055E-01
 -0.63887429E-01 -0.58598616E-01 -0.53318690E-01 -0.48089661E-01 -0.42948746E-01
 -0.37928634E-01 -0.33057753E-01 -0.28360527E-01 -0.23857628E-01 -0.19566232E-01
 -0.15500255E-01 -0.11670591E-01 -0.80853462E-02 -0.47500553E-02 -0.16679017E-02
  0.11600774E-02  0.37347901E-02  0.60588986E-02  0.81366356E-02  0.99736290E-02
  0.11576735E-01  0.12953879E-01  0.14113908E-01  0.15066445E-01  0.15821759E-01
  0.16390637E-01  0.16784270E-01  0.17014140E-01  0.17091924E-01  0.17029397E-01
  0.16838345E-01  0.16530490E-01  0.16117415E-01  0.15610503E-01  0.15020875E-01
  0.14359340E-01  0.13636353E-01  0.12861969E-01  0.12045813E-01  0.11197051E-01
  0.10324367E-01  0.94359408E-02  0.85394391E-02  0.76420009E-02  0.67502337E-02
  0.58702104E-02  0.50074708E-02  0.41670255E-02  0.33533630E-02  0.25704594E-02
  0.18217907E-02  0.11103467E-02  0.43864740E-03 -0.19123935E-03 -0.77767861E-03
 -0.13194479E-02 -0.18157156E-02 -0.22660189E-02 -0.26702404E-02 -0.30285850E-02
 -0.33415560E-02 -0.36099314E-02 -0.38347396E-02 -0.40172360E-02 -0.41588792E-02
 -0.42613081E-02 -0.43263189E-02 -0.43558433E-02 -0.43519269E-02 -0.43167085E-02
 -0.42524004E-02 -0.41612691E-02 -0.40456174E-02 -0.39077670E-02 -0.37500428E-02
 -0.35747573E-02 -0.33841969E-02 -0.31806087E-02 -0.29661886E-02 -0.27430705E-02
 -0.25133163E-02 -0.22789073E-02 -0.20417366E-02 -0.18036020E-02 -0.15662006E-02
 -0.13311240E-02 -0.10998545E-02 -0.87376201E-03 -0.65410218E-03 -0.44201508E-03
 -0.23852475E-03 -0.44539476E-04  0.13914728E-03  0.31185524E-03  0.47301513E-03
  0.62216594E-03  0.75895166E-03  0.88311760E-03  0.99450630E-03  0.10930530E-02
  0.11787811E-02  0.12517966E-02  0.13122835E-02  0.13604980E-02  0.13967628E-02
  0.14214617E-02  0.14350339E-02  0.14379678E-02  0.14307959E-02  0.14140885E-02
  0.13884485E-02  0.13545057E-02  0.13129113E-02  0.12643329E-02  0.12094495E-02
  0.11489461E-02  0.10835097E-02  0.10138246E-02  0.94056816E-03  0.86440694E-03
  0.78599315E-03  0.70596116E-03  0.62492444E-03  0.54347275E-03  0.46216959E-03
  0.38154998E-03  0.30211845E-03  0.22434744E-03  0.14867583E-03  0.75507833E-04
  0.52121421E-05 -0.61878692E-04 -0.12546861E-03 -0.18529817E-03 -0.24114442E-03
 -0.29282062E-03 -0.34017564E-03 -0.38309329E-03 -0.42149144E-03 -0.45532088E-03
 -0.48456417E-03 -0.50923427E-03 -0.52937305E-03 -0.54504973E-03 -0.55635918E-03
 -0.56342019E-03 -0.56637362E-03 -0.56538054E-03 -0.56062031E-03 -0.55228866E-03
 -0.54059570E-03 -0.52576400E-03 -0.50802662E-03 -0.48762521E-03 -0.46480810E-03
 -0.43982846E-03 -0.41294250E-03 -0.38440775E-03 -0.35448135E-03 -0.32341846E-03
 -0.29147078E-03 -0.25888508E-03 -0.22590186E-03 -0.19275413E-03 -0.15966624E-03
 -0.12685283E-03 -0.94517905E-04 -0.62853978E-04 -0.32041350E-04 -0.22474715E-05
  0.26373579E-04  0.53681514E-04  0.79550160E-04  0.10386767E-03  0.12653667E-03
  0.14747423E-03  0.16661188E-03  0.18389541E-03  0.19928465E-03  0.21275318E-03
  0.22428793E-03  0.23388875E-03  0.24156790E-03  0.24734948E-03  0.25126882E-03
  0.25337182E-03  0.25371424E-03  0.25236099E-03  0.24938535E-03  0.24486820E-03
  0.23889721E-03  0.23156601E-03  0.22297344E-03  0.21322265E-03  0.20242035E-03
  0.19067596E-03  0.17810085E-03  0.16480756E-03  0.15090904E-03  0.13651794E-03
  0.12174588E-03  0.10670284E-03  0.91496461E-04  0.76231525E-04  0.61009349E-04
  0.45927297E-04  0.31078309E-04  0.16550473E-04  0.24266548E-05 -0.11215841E-04
 -0.24305554E-04 -0.36777105E-04 -0.48571394E-04 -0.59635744E-04 -0.69924004E-04
 -0.79396607E-04 -0.88020587E-04 -0.95769552E-04 -0.10262362E-03 -0.10856931E-03
 -0.11359941E-03 -0.11771280E-03 -0.12091425E-03 -0.12321418E-03 -0.12462841E-03
 -0.12517786E-03 -0.12488824E-03 -0.12378976E-03 -0.12191674E-03 -0.11930728E-03
 -0.11600290E-03 -0.11204813E-03 -0.10749017E-03 -0.10237846E-03 -0.96764348E-04
 -0.90700648E-04 -0.84241295E-04 -0.77440959E-04 -0.70354677E-04 -0.63037495E-04
 -0.55544125E-04 -0.47928610E-04 -0.40244007E-04 -0.32542089E-04 -0.24873060E-04
 -0.17285291E-04 -0.98250756E-05 -0.25364105E-05  0.45392106E-05  0.11362975E-04
  0.17898906E-04  0.24114005E-04  0.29978352E-04  0.35465207E-04  0.40551069E-04
  0.45215723E-04  0.49442263E-04  0.53217097E-04  0.56529922E-04  0.59373690E-04
  0.61744551E-04  0.63641776E-04  0.65067663E-04  0.66027434E-04  0.66529108E-04
  0.66583366E-04  0.66203403E-04  0.65404767E-04  0.64205191E-04  0.62624417E-04
  0.60684006E-04  0.58407156E-04  0.55818499E-04  0.52943910E-04  0.49810305E-04
  0.46445441E-04  0.42877718E-04  0.39135980E-04  0.35249327E-04  0.31246916E-04
  0.27157786E-04  0.23010673E-04  0.18833843E-04  0.14654926E-04  0.10500763E-04
  0.63972613E-05  0.23692585E-05 -0.15596019E-05 -0.53669839E-05 -0.90319612E-05
 -0.12535108E-04 -0.15858577E-04 -0.18986168E-04 -0.21903378E-04 -0.24597450E-04
 -0.27057398E-04 -0.29274029E-04 -0.31239948E-04 -0.32949555E-04 -0.34399030E-04
 -0.35586306E-04 -0.36511033E-04 -0.37174534E-04 -0.37579749E-04 -0.37731172E-04
 -0.37634780E-04 -0.37297954E-04 -0.36729397E-04 -0.35939041E-04 -0.34937948E-04
 -0.33738218E-04 -0.32352877E-04 -0.30795776E-04 -0.29081479E-04 -0.27225151E-04
 -0.25242452E-04 -0.23149421E-04 -0.20962366E-04 -0.18697758E-04 -0.16372118E-04
 -0.14001918E-04 -0.11603474E-04 -0.91928509E-05 -0.67857686E-05 -0.43975106E-05
 -0.20428412E-05  0.26407407E-06  0.25097411E-05  0.46814046E-05  0.67671086E-05
  0.87557508E-05  0.10637130E-04  0.12401986E-04  0.14042036E-04  0.15549997E-04
  0.16919610E-04  0.18145650E-04  0.19223935E-04  0.20151323E-04  0.20925708E-04
  0.21546003E-04  0.22012125E-04  0.22324968E-04  0.22486375E-04  0.22499097E-04
  0.22366762E-04  0.22093820E-04  0.21685504E-04  0.21147770E-04  0.20487248E-04
  0.19711177E-04  0.18827352E-04  0.17844055E-04  0.16769995E-04  0.15614241E-04
  0.14386157E-04  0.13095334E-04  0.11751529E-04  0.10364595E-04  0.89444189E-05
  0.75008584E-05  0.60436809E-05  0.45825045E-05  0.31267408E-05  0.16855413E-05
  0.26774601E-06 -0.11181645E-05 -0.24641137E-05 -0.37624703E-05 -0.50060853E-05
 -0.61883256E-05 -0.73031030E-05 -0.83449002E-05 -0.93087911E-05 -0.10190459E-04
 -0.10986206E-04 -0.11692969E-04 -0.12308314E-04 -0.12830446E-04 -0.13258199E-04
 -0.13591032E-04 -0.13829015E-04 -0.13972820E-04 -0.14023695E-04 -0.13983450E-04
 -0.13854427E-04 -0.13639478E-04 -0.13341932E-04 -0.12965564E-04 -0.12514563E-04
 -0.11993491E-04 -0.11407254E-04 -0.10761055E-04 -0.10060361E-04 -0.93108591E-05
 -0.85184173E-05 -0.76890427E-05 -0.68288415E-05 -0.59439779E-05 -0.50406344E-05
 -0.41249723E-05 -0.32030938E-05 -0.22810046E-05 -0.13645789E-05 -0.45952479E-06
  0.42864738E-06  0.12946555E-05  0.21334738E-05  0.29403587E-05  0.37108725E-05
  0.44409043E-05  0.51266890E-05  0.57648233E-05  0.63522788E-05  0.68864134E-05
  0.73649793E-05  0.77861284E-05  0.81484156E-05  0.84507988E-05  0.86926371E-05
  0.88736859E-05  0.89940903E-05  0.90543755E-05  0.90554355E-05  0.89985197E-05
  0.88852173E-05  0.87174403E-05  0.84974047E-05  0.82276097E-05  0.79108166E-05
  0.75500255E-05  0.71484518E-05  0.67095011E-05  0.62367440E-05  0.57338904E-05
  0.52047629E-05  0.46532709E-05  0.40833836E-05  0.34991047E-05  0.29044458E-05
  0.23034013E-05  0.16999237E-05  0.10978996E-05  0.50112666E-06 -0.86708495E-07
 -0.66205109E-06 -0.12214979E-05 -0.17618153E-05 -0.22799567E-05 -0.27730771E-05
 -0.32385474E-05 -0.36739666E-05 -0.40771719E-05 -0.44462475E-05 -0.47795322E-05
 -0.50756241E-05 -0.53333845E-05 -0.55519396E-05 -0.57306810E-05 -0.58692639E-05
 -0.59676042E-05 -0.60258738E-05 -0.60444943E-05 -0.60241298E-05 -0.59656774E-05
 -0.58702574E-05 -0.57392014E-05 -0.55740405E-05 -0.53764908E-05 -0.51484399E-05
 -0.48919311E-05 -0.46091478E-05 -0.43023968E-05 -0.39740917E-05 -0.36267353E-05
 -0.32629025E-05 -0.28852225E-05 -0.24963614E-05 -0.20990045E-05 -0.16958390E-05
 -0.12895375E-05 -0.88274111E-06 -0.47804359E-06 -0.77975843E-07  0.31500867E-06
  0.69854794E-06  0.10703845E-05  0.14283777E-05  0.17705149E-05  0.20949215E-05
  0.23998706E-05  0.26837906E-05  0.29452725E-05  0.31830752E-05  0.33961310E-05
  0.35835482E-05  0.37446139E-05  0.38787951E-05  0.39857385E-05  0.40652696E-05
  0.41173903E-05  0.41422759E-05  0.41402703E-05  0.41118813E-05  0.40577739E-05
  0.39787635E-05  0.38758080E-05  0.37499989E-05  0.36025524E-05  0.34347992E-05
  0.32481739E-05  0.30442045E-05  0.28245006E-05  0.25907425E-05  0.23446684E-05
  0.20880631E-05  0.18227460E-05  0.15505584E-05  0.12733521E-05  0.99297731E-06
  0.71127112E-06  0.43004611E-06  0.15107946E-06 -0.12389766E-06 -0.39321015E-06
 -0.65524848E-06 -0.90847769E-06 -0.11514457E-05 -0.13827911E-05 -0.16012498E-05
 -0.18056616E-05 -0.19949756E-05 -0.21682546E-05 -0.23246795E-05 -0.24635518E-05
 -0.25842964E-05 -0.26864627E-05 -0.27697255E-05 -0.28338847E-05 -0.28788645E-05
 -0.29047116E-05 -0.29115928E-05 -0.28997921E-05 -0.28697065E-05 -0.28218417E-05
 -0.27568074E-05 -0.26753109E-05 -0.25781519E-05 -0.24662150E-05 -0.23404633E-05
 -0.22019308E-05 -0.20517146E-05 -0.18909670E-05 -0.17208871E-05 -0.15427129E-05
 -0.13577125E-05 -0.11671756E-05 -0.97240522E-06 -0.77470908E-06 -0.57539141E-06
 -0.37574471E-06 -0.17704188E-06  0.19471501E-07  0.21258456E-06  0.40112815E-06
  0.58398156E-06  0.76007870E-06  0.92841397E-06  0.10880475E-05  0.12381102E-05
  0.13778076E-05  0.15064241E-05  0.16233260E-05  0.17279640E-05  0.18198755E-05
  0.18986860E-05  0.19641097E-05  0.20159505E-05  0.20541012E-05  0.20785428E-05
  0.20893436E-05  0.20866569E-05  0.20707186E-05  0.20418448E-05  0.20004281E-05
  0.19469344E-05  0.18818979E-05  0.18059176E-05  0.17196518E-05  0.16238134E-05
  0.15191643E-05  0.14065098E-05  0.12866932E-05  0.11605892E-05  0.10290986E-05
  0.89314183E-06  0.75365277E-06  0.61157290E-06  0.46784512E-06  0.32340775E-06
  0.17918879E-06  0.36100162E-07 -0.10496777E-06 -0.24315143E-06 -0.37761910E-06
 -0.50757564E-06 -0.63226690E-06 -0.75098386E-06 -0.86306638E-06 -0.96790660E-06
 -0.10649519E-05 -0.11537077E-05 -0.12337395E-05 -0.13046745E-05 -0.13662035E-05
 -0.14180815E-05 -0.14601283E-05 -0.14922287E-05 -0.15143321E-05 -0.15264521E-05
 -0.15286649E-05 -0.15211086E-05 -0.15039807E-05 -0.14775362E-05 -0.14420853E-05
 -0.13979904E-05 -0.13456629E-05 -0.12855601E-05 -0.12181816E-05 -0.11440654E-05
 -0.10637838E-05 -0.97793956E-06 -0.88716163E-06 -0.79210049E-06 -0.69342397E-06
 -0.59181273E-06 -0.48795574E-06 -0.38254583E-06 -0.27627528E-06 -0.16983143E-06
 -0.63892462E-07  0.40876776E-07  0.14382874E-06  0.24433704E-06  0.34180004E-06
  0.43564432E-06  0.52532783E-06  0.61034289E-06  0.69021886E-06  0.76452455E-06
  0.83287038E-06  0.89491020E-06  0.95034287E-06  0.99891344E-06  0.10404141E-05
  0.10746850E-05  0.11016140E-05  0.11211374E-05  0.11332391E-05  0.11379502E-05
  0.11353483E-05  0.11255558E-05  0.11087392E-05  0.10851067E-05  0.10549069E-05
  0.10184261E-05  0.97598637E-06  0.92794285E-06  0.87468097E-06  0.81661369E-06
  0.75417840E-06  0.68783392E-06  0.61805719E-06  0.54534010E-06  0.47018608E-06
  0.39310685E-06  0.31461900E-06  0.23524070E-06  0.15548841E-06  0.75873626E-07
 -0.31002727E-08 -0.80941069E-07 -0.15717067E-06 -0.23132792E-06 -0.30297128E-06
 -0.37168131E-06 -0.43706305E-06 -0.49874813E-06 -0.55639673E-06 -0.60969934E-06
 -0.65837828E-06 -0.70218900E-06 -0.74092118E-06 -0.77439955E-06 -0.80248456E-06
 -0.82507269E-06 -0.84209670E-06 -0.85352544E-06 -0.85936366E-06 -0.85965138E-06
 -0.85446324E-06 -0.84390750E-06 -0.82812489E-06 -0.80728732E-06 -0.78159632E-06
 -0.75128138E-06 -0.71659813E-06 -0.67782635E-06 -0.63526790E-06 -0.58924446E-06
 -0.54009531E-06 -0.48817487E-06 -0.43385030E-06 -0.37749902E-06 -0.31950614E-06
 -0.26026198E-06 -0.20015949E-06 -0.13959176E-06 -0.78949527E-07 -0.18618751E-07
  0.41021777E-07  0.99602715E-07  0.15676638E-06  0.21216885E-06  0.26548196E-06
  0.31639514E-06  0.36461716E-06  0.40987772E-06  0.45192886E-06  0.49054623E-06
  0.52553019E-06  0.55670677E-06  0.58392841E-06  0.60707451E-06  0.62605191E-06
  0.64079505E-06  0.65126604E-06  0.65745456E-06  0.65937751E-06  0.65707862E-06
  0.65062775E-06  0.64012014E-06  0.62567548E-06  0.60743684E-06  0.58556941E-06
  0.56025926E-06  0.53171179E-06  0.50015027E-06  0.46581415E-06  0.42895734E-06
  0.38984643E-06  0.34875883E-06  0.30598091E-06  0.26180603E-06  0.21653263E-06
  0.17046225E-06  0.12389764E-06  0.77140756E-07  0.30490921E-07 -0.15757055E-07
 -0.61314677E-07 -0.10590151E-06 -0.14924683E-06 -0.19109125E-06 -0.23118816E-06
 -0.26930519E-06 -0.30522541E-06 -0.33874860E-06 -0.36969224E-06 -0.39789245E-06
 -0.42320481E-06 -0.44550501E-06 -0.46468938E-06 -0.48067529E-06 -0.49340143E-06
 -0.50282788E-06 -0.50893615E-06 -0.51172897E-06 -0.51123007E-06 -0.50748371E-06
 -0.50055419E-06 -0.49052515E-06 -0.47749884E-06 -0.46159523E-06 -0.44295101E-06
 -0.42171856E-06 -0.39806473E-06 -0.37216969E-06 -0.34422555E-06 -0.31443504E-06
 -0.28301008E-06 -0.25017035E-06 -0.21614178E-06 -0.18115505E-06 -0.14544408E-06
 -0.10924453E-06 -0.72792235E-07 -0.36321776E-07 -0.64968289E-10  0.35750552E-07
  0.70902721E-07  0.10517638E-06  0.13836456E-06  0.17026967E-06  0.20070466E-06
  0.22949405E-06  0.25647494E-06  0.28149781E-06  0.30442741E-06  0.32514334E-06
  0.34354069E-06  0.35953053E-06  0.37304022E-06  0.38401374E-06  0.39241178E-06
  0.39821185E-06  0.40140818E-06  0.40201158E-06  0.40004915E-06  0.39556393E-06
  0.38861444E-06  0.37927412E-06  0.36763068E-06  0.35378541E-06  0.33785233E-06
  0.31995733E-06  0.30023729E-06  0.27883899E-06  0.25591815E-06  0.23163829E-06
  0.20616960E-06  0.17968784E-06  0.15237310E-06  0.12440864E-06  0.95979686E-07
  0.67272254E-07  0.38471937E-07  0.97627492E-08 -0.18674018E-07 -0.46660915E-07
 -0.74025411E-07 -0.10060092E-06 -0.12622781E-06 -0.15075430E-06 -0.17403734E-06
 -0.19594344E-06 -0.21634936E-06 -0.23514281E-06 -0.25222301E-06 -0.26750120E-06
 -0.28090108E-06 -0.29235911E-06 -0.30182482E-06 -0.30926094E-06 -0.31464347E-06
 -0.31796174E-06 -0.31921827E-06 -0.31842862E-06 -0.31562116E-06 -0.31083671E-06
 -0.30412817E-06 -0.29556005E-06 -0.28520789E-06 -0.27315769E-06 -0.25950527E-06
 -0.24435549E-06 -0.22782152E-06 -0.21002405E-06 -0.19109040E-06 -0.17115366E-06
 atomic pseudo charge-density
  0.70000000E+01  0.69925394E+01  0.69703120E+01  0.69337731E+01  0.68836549E+01
  0.68209292E+01  0.67467590E+01  0.66624444E+01  0.65693657E+01  0.64689272E+01
  0.63625070E+01  0.62514136E+01  0.61368512E+01  0.60198957E+01  0.59014793E+01
  0.57823849E+01  0.56632474E+01  0.55445619E+01  0.54266953E+01  0.53099023E+01
  0.51943416E+01  0.50800934E+01  0.49671760E+01  0.48555613E+01  0.47451886E+01
  0.46359769E+01  0.45278344E+01  0.44206673E+01  0.43143853E+01  0.42089072E+01
  0.41041634E+01  0.40000985E+01  0.38966722E+01  0.37938596E+01  0.36916511E+01
  0.35900513E+01  0.34890780E+01  0.33887613E+01  0.32891415E+01  0.31902680E+01
  0.30921975E+01  0.29949929E+01  0.28987213E+01  0.28034534E+01  0.27092613E+01
  0.26162182E+01  0.25243970E+01  0.24338694E+01  0.23447052E+01  0.22569714E+01
  0.21707319E+01  0.20860469E+01  0.20029726E+01  0.19215607E+01  0.18418583E+01
  0.17639079E+01  0.16877471E+01  0.16134087E+01  0.15409205E+01  0.14703058E+01
  0.14015831E+01  0.13347664E+01  0.12698654E+01  0.12068856E+01  0.11458282E+01
  0.10866911E+01  0.10294681E+01  0.97414986E+00  0.92072386E+00  0.86917452E+00
  0.81948350E+00  0.77162992E+00  0.72559051E+00  0.68133983E+00  0.63885047E+00
  0.59809318E+00  0.55903710E+00  0.52164986E+00  0.48589780E+00  0.45174608E+00
  0.41915883E+00  0.38809930E+00  0.35852994E+00  0.33041257E+00  0.30370849E+00
  0.27837854E+00  0.25438325E+00  0.23168292E+00  0.21023770E+00  0.19000767E+00
  0.17095295E+00  0.15303374E+00  0.13621041E+00  0.12044355E+00  0.10569404E+00
  0.91923111E-01  0.79092400E-01  0.67163983E-01  0.56100437E-01  0.45864874E-01
  0.36420988E-01  0.27733085E-01  0.19766120E-01  0.12485728E-01  0.58582499E-02
 -0.14924113E-03 -0.55689167E-02 -0.10432173E-01 -0.14769613E-01 -0.18611031E-01
 -0.21985398E-01 -0.24920852E-01 -0.27444687E-01 -0.29583346E-01 -0.31362416E-01
 -0.32806624E-01 -0.33939834E-01 -0.34785046E-01 -0.35364399E-01 -0.35699173E-01
 -0.35809792E-01 -0.35715829E-01 -0.35436014E-01 -0.34988241E-01 -0.34389577E-01
 -0.33656271E-01 -0.32803768E-01 -0.31846717E-01 -0.30798989E-01 -0.29673685E-01
 -0.28483157E-01 -0.27239017E-01 -0.25952159E-01 -0.24632772E-01 -0.23290359E-01
 -0.21933756E-01 -0.20571147E-01 -0.19210087E-01 -0.17857520E-01 -0.16519798E-01
 -0.15202700E-01 -0.13911457E-01 -0.12650768E-01 -0.11424822E-01 -0.10237321E-01
 -0.90914981E-02 -0.79901406E-02 -0.69356100E-02 -0.59298638E-02 -0.49744758E-02
 -0.40706578E-02 -0.32192794E-02 -0.24208893E-02 -0.16757351E-02 -0.98378344E-03
 -0.34473982E-03  0.24193211E-03  0.77699149E-03  0.12614017E-02  0.16963120E-02
  0.20830402E-02  0.24230549E-02  0.27179590E-02  0.29694734E-02  0.31794217E-02
  0.33497144E-02  0.34823349E-02  0.35793254E-02  0.36427735E-02  0.36747999E-02
  0.36775455E-02  0.36531609E-02  0.36037951E-02  0.35315852E-02  0.34386473E-02
  0.33270675E-02  0.31988934E-02  0.30561271E-02  0.29007176E-02  0.27345549E-02
  0.25594642E-02  0.23772008E-02  0.21894456E-02  0.19978010E-02  0.18037881E-02
  0.16088432E-02  0.14143159E-02  0.12214675E-02  0.10314696E-02  0.84540315E-03
  0.66425844E-03  0.48893515E-03  0.32024285E-03  0.15890200E-03  0.55452489E-05
 -0.13928089E-03 -0.27511407E-03 -0.40157380E-03 -0.51835887E-03 -0.62524456E-03
 -0.72207959E-03 -0.80878285E-03 -0.88533998E-03 -0.95179982E-03 -0.10082706E-02
 -0.10549163E-02 -0.10919525E-02 -0.11196424E-02 -0.11382932E-02 -0.11482516E-02
 -0.11498998E-02 -0.11436517E-02 -0.11299487E-02 -0.11092559E-02 -0.10820580E-02
 -0.10488557E-02 -0.10101620E-02 -0.96649824E-03 -0.91839127E-03 -0.86636957E-03
 -0.81096034E-03 -0.75268636E-03 -0.69206321E-03 -0.62959650E-03 -0.56577942E-03
 -0.50109036E-03 -0.43599081E-03 -0.37092338E-03 -0.30631003E-03 -0.24255054E-03
 -0.18002112E-03 -0.11907322E-03 -0.60032537E-04 -0.31982521E-05  0.51157629E-04
  0.10279069E-03  0.15148437E-03  0.19705003E-03  0.23932694E-03  0.27818197E-03
  0.31350926E-03  0.34522969E-03  0.37329024E-03  0.39766316E-03  0.41834514E-03
  0.43535630E-03  0.44873905E-03  0.45855697E-03  0.46489353E-03  0.46785076E-03
  0.46754789E-03  0.46411991E-03  0.45771612E-03  0.44849864E-03  0.43664091E-03
  0.42232617E-03  0.40574593E-03  0.38709852E-03  0.36658753E-03  0.34442041E-03
  0.32080702E-03  0.29595824E-03  0.27008461E-03  0.24339509E-03  0.21609578E-03
  0.18838876E-03  0.16047102E-03  0.13253338E-03  0.10475960E-03  0.77325431E-04
  0.50397873E-04  0.24134435E-04 -0.13174857E-05 -0.25821158E-04 -0.49250972E-04
 -0.71492825E-04 -0.92444408E-04 -0.11201542E-03 -0.13012771E-03 -0.14671532E-03
 -0.16172445E-03 -0.17511338E-03 -0.18685229E-03 -0.19692305E-03 -0.20531888E-03
 -0.21204402E-03 -0.21711332E-03 -0.22055174E-03 -0.22239390E-03 -0.22268346E-03
 -0.22147259E-03 -0.21882131E-03 -0.21479685E-03 -0.20947298E-03 -0.20292932E-03
 -0.19525066E-03 -0.18652618E-03 -0.17684882E-03 -0.16631451E-03 -0.15502148E-03
 -0.14306956E-03 -0.13055949E-03 -0.11759224E-03 -0.10426840E-03 -0.90687485E-04
 -0.76947410E-04 -0.63143875E-04 -0.49369843E-04 -0.35715036E-04 -0.22265468E-04
 -0.91030228E-05  0.36949422E-05  0.16055937E-04  0.27912647E-04  0.39203196E-04
  0.49871367E-04  0.59866781E-04  0.69145031E-04  0.77667779E-04  0.85402809E-04
  0.92324036E-04  0.98411485E-04  0.10365122E-03  0.10803526E-03  0.11156143E-03
  0.11423317E-03  0.11605942E-03  0.11705428E-03  0.11723687E-03  0.11663097E-03
  0.11526477E-03  0.11317054E-03  0.11038429E-03  0.10694544E-03  0.10289647E-03
  0.98282524E-04  0.93151064E-04  0.87551491E-04  0.81534767E-04  0.75153041E-04
  0.68459279E-04  0.61506896E-04  0.54349406E-04  0.47040066E-04  0.39631550E-04
  0.32175620E-04  0.24722823E-04  0.17322203E-04  0.10021023E-04  0.28645225E-05
 -0.41043247E-05 -0.10845015E-04 -0.17319707E-04 -0.23493388E-04 -0.29334015E-04
 -0.34812643E-04 -0.39903514E-04 -0.44584137E-04 -0.48835337E-04 -0.52641287E-04
 -0.55989512E-04 -0.58870877E-04 -0.61279546E-04 -0.63212933E-04 -0.64671625E-04
 -0.65659285E-04 -0.66182548E-04 -0.66250891E-04 -0.65876495E-04 -0.65074087E-04
 -0.63860780E-04 -0.62255890E-04 -0.60280757E-04 -0.57958546E-04 -0.55314048E-04
 -0.52373478E-04 -0.49164264E-04 -0.45714837E-04 -0.42054422E-04 -0.38212825E-04
 -0.34220225E-04 -0.30106972E-04 -0.25903381E-04 -0.21639543E-04 -0.17345132E-04
 -0.13049226E-04 -0.87801354E-05 -0.45652422E-05 -0.43084444E-06  0.35979824E-05
  0.74975155E-05  0.11245502E-04  0.14821265E-04  0.18205794E-04  0.21381823E-04
  0.24333899E-04  0.27048433E-04  0.29513738E-04  0.31720055E-04  0.33659567E-04
  0.35326399E-04  0.36716603E-04  0.37828137E-04  0.38660827E-04  0.39216318E-04
  0.39498022E-04  0.39511045E-04  0.39262113E-04  0.38759487E-04  0.38012872E-04
  0.37033313E-04  0.35833095E-04  0.34425628E-04  0.32825334E-04  0.31047528E-04
  0.29108298E-04  0.27024376E-04  0.24813023E-04  0.22491895E-04  0.20078927E-04
  0.17592203E-04  0.15049843E-04  0.12469879E-04  0.98701430E-05  0.72681591E-05
  0.46810345E-05  0.21253616E-05 -0.38287723E-06 -0.28283975E-05 -0.51966943E-05
 -0.74741163E-05 -0.96479337E-05 -0.11706397E-04 -0.13638791E-04 -0.15435475E-04
 -0.17087922E-04 -0.18588748E-04 -0.19931728E-04 -0.21111810E-04 -0.22125123E-04
 -0.22968966E-04 -0.23641807E-04 -0.24143255E-04 -0.24474045E-04 -0.24636000E-04
 -0.24631994E-04 -0.24465913E-04 -0.24142602E-04 -0.23667813E-04 -0.23048146E-04
 -0.22290988E-04 -0.21404444E-04 -0.20397273E-04 -0.19278812E-04 -0.18058904E-04
 -0.16747826E-04 -0.15356205E-04 -0.13894952E-04 -0.12375178E-04 -0.10808118E-04
 -0.92050612E-05 -0.75772725E-05 -0.59359222E-05 -0.42920167E-05 -0.26563308E-05
 -0.10393445E-05  0.54881831E-06  0.20984465E-05  0.36002947E-05  0.50456327E-05
  0.64262893E-05  0.77346926E-05  0.89639056E-05  0.10107656E-04  0.11160361E-04
  0.12117152E-04  0.12973882E-04  0.13727146E-04  0.14374278E-04  0.14913358E-04
  0.15343206E-04  0.15663370E-04  0.15874119E-04  0.15976422E-04  0.15971927E-04
  0.15862937E-04  0.15652379E-04  0.15343773E-04  0.14941200E-04  0.14449256E-04
  0.13873020E-04  0.13218006E-04  0.12490119E-04  0.11695612E-04  0.10841035E-04
  0.99331882E-05  0.89790738E-05  0.79858463E-05  0.69607634E-05  0.59111378E-05
  0.48442892E-05  0.37674969E-05  0.26879547E-05  0.16127262E-05  0.54870248E-06
 -0.49743843E-06 -0.15192700E-05 -0.25106529E-05 -0.34657688E-05 -0.43791506E-05
 -0.52457106E-05 -0.60607650E-05 -0.68200560E-05 -0.75197704E-05 -0.81565547E-05
 -0.87275278E-05 -0.92302894E-05 -0.96629263E-05 -0.10024015E-04 -0.10312619E-04
 -0.10528290E-04 -0.10671056E-04 -0.10741414E-04 -0.10740317E-04 -0.10669160E-04
 -0.10529762E-04 -0.10324345E-04 -0.10055514E-04 -0.97262305E-05 -0.93397895E-05
 -0.88997894E-05 -0.84101044E-05 -0.78748547E-05 -0.72983747E-05 -0.66851818E-05
 -0.60399438E-05 -0.53674462E-05 -0.46725597E-05 -0.39602070E-05 -0.32353308E-05
 -0.25028615E-05 -0.17676862E-05 -0.10346181E-05 -0.30836719E-06  0.40648780E-06
  0.11055264E-05  0.17845117E-05  0.24394139E-05  0.30664324E-05  0.36620157E-05
  0.42228797E-05  0.47460238E-05  0.52287446E-05  0.56686483E-05  0.60636600E-05
  0.64120311E-05  0.67123452E-05  0.69635202E-05  0.71648102E-05  0.73158037E-05
  0.74164202E-05  0.74669052E-05  0.74678226E-05  0.74200452E-05  0.73247442E-05
  0.71833760E-05  0.69976681E-05  0.67696032E-05  0.65014020E-05  0.61955048E-05
  0.58545523E-05  0.54813649E-05  0.50789217E-05  0.46503388E-05  0.41988466E-05
  0.37277677E-05  0.32404933E-05  0.27404610E-05  0.22311319E-05  0.17159674E-05
  0.11984078E-05  0.68185012E-06  0.16962734E-06 -0.33501207E-06 -0.82892344E-06
 -0.13090844E-05 -0.17726120E-05 -0.22167791E-05 -0.26390293E-05 -0.30369901E-05
 -0.34084855E-05 -0.37515465E-05 -0.40644202E-05 -0.43455776E-05 -0.45937200E-05
 -0.48077830E-05 -0.49869398E-05 -0.51306026E-05 -0.52384225E-05 -0.53102879E-05
 -0.53463211E-05 -0.53468738E-05 -0.53125214E-05 -0.52440554E-05 -0.51424749E-05
 -0.50089770E-05 -0.48449455E-05 -0.46519395E-05 -0.44316803E-05 -0.41860379E-05
 -0.39170163E-05 -0.36267388E-05 -0.33174322E-05 -0.29914113E-05 -0.26510617E-05
 -0.22988243E-05 -0.19371783E-05 -0.15686243E-05 -0.11956684E-05 -0.82080586E-06
 -0.44650483E-06 -0.75191269E-07  0.29076622E-06  0.64907074E-06  0.99751079E-06
  0.13339732E-05  0.16564553E-05  0.19630759E-05  0.22520861E-05  0.25218777E-05
  0.27709924E-05  0.29981281E-05  0.32021452E-05  0.33820719E-05  0.35371070E-05
  0.36666235E-05  0.37701693E-05  0.38474677E-05  0.38984164E-05  0.39230860E-05
  0.39217163E-05  0.38947126E-05  0.38426404E-05  0.37662195E-05  0.36663169E-05
  0.35439391E-05  0.34002234E-05  0.32364286E-05  0.30539250E-05  0.28541842E-05
  0.26387676E-05  0.24093152E-05  0.21675337E-05  0.19151848E-05  0.16540725E-05
  0.13860310E-05  0.11129126E-05  0.83657485E-06  0.55886912E-06  0.28162819E-06
  0.66548511E-08 -0.26428941E-06 -0.52949520E-06 -0.78731556E-06 -0.10361757E-05
 -0.12745823E-05 -0.15011319E-05 -0.17145185E-05 -0.19135412E-05 -0.20971099E-05
 -0.22642510E-05 -0.24141121E-05 -0.25459658E-05 -0.26592123E-05 -0.27533819E-05
 -0.28281360E-05 -0.28832672E-05 -0.29186992E-05 -0.29344851E-05 -0.29308052E-05
 -0.29079642E-05 -0.28663874E-05 -0.28066159E-05 -0.27293019E-05 -0.26352026E-05
 -0.25251739E-05 -0.24001633E-05 -0.22612025E-05 -0.21093995E-05 -0.19459304E-05
 -0.17720307E-05 -0.15889862E-05 -0.13981244E-05 -0.12008050E-05 -0.99841027E-06
 -0.79233648E-06 -0.58398397E-06 -0.37474827E-06 -0.16601100E-06  0.40868919E-07
  0.24456379E-06  0.44378537E-06  0.63729269E-06  0.82389949E-06  0.10024812E-05
  0.11719813E-05  0.13314174E-05  0.14798867E-05  0.16165703E-05  0.17407380E-05
  0.18517514E-05  0.19490667E-05  0.20322376E-05  0.21009159E-05  0.21548532E-05
  0.21939008E-05  0.22180093E-05  0.22272276E-05  0.22217013E-05  0.22016702E-05
  0.21674657E-05  0.21195071E-05  0.20582980E-05  0.19844214E-05  0.18985354E-05
  0.18013672E-05  0.16937082E-05  0.15764070E-05  0.14503640E-05  0.13165242E-05
  0.11758708E-05  0.10294180E-05  0.87820403E-06  0.72328418E-06  0.56572354E-06
  0.40658998E-06  0.24694711E-06  0.87847426E-07 -0.69674404E-07 -0.22460807E-06
 -0.37597389E-06 -0.52282874E-06 -0.66427175E-06 -0.79944963E-06 -0.92756154E-06
 -0.10478637E-05 -0.11596732E-05 -0.12623721E-05 -0.13554103E-05 -0.14383081E-05
 -0.15106586E-05 -0.15721293E-05 -0.16224632E-05 -0.16614798E-05 -0.16890747E-05
 -0.17052197E-05 -0.17099617E-05 -0.17034216E-05 -0.16857924E-05 -0.16573370E-05
 -0.16183856E-05 -0.15693325E-05 -0.15106328E-05 -0.14427986E-05 -0.13663950E-05
 -0.12820354E-05 -0.11903773E-05 -0.10921169E-05 -0.98798463E-06 -0.87873939E-06
 -0.76516361E-06 -0.64805762E-06 -0.52823430E-06 -0.40651356E-06 -0.28371692E-06
 -0.16066213E-06 -0.38157876E-07  0.83001359E-07  0.20204029E-06  0.31820765E-06
  0.43078075E-06  0.53906982E-06  0.64242209E-06  0.74022555E-06  0.83191239E-06
  0.91696215E-06  0.99490448E-06  0.10653215E-05  0.11278501E-05  0.11821830E-05
  0.12280708E-05  0.12653222E-05  0.12938048E-05  0.13134453E-05  0.13242289E-05
  0.13261987E-05  0.13194551E-05  0.13041537E-05  0.12805041E-05  0.12487678E-05
  0.12092555E-05  0.11623247E-05  0.11083768E-05  0.10478537E-05  0.98123464E-06
  0.90903250E-06  0.83178996E-06  0.75007571E-06  0.66448032E-06  0.57561219E-06
  0.48409328E-06  0.39055499E-06  0.29563385E-06  0.19996734E-06  0.10418972E-06
  0.89279963E-08 -0.85202148E-07 -0.17760015E-06 -0.26768431E-06 -0.35489533E-06
 -0.43869967E-06 -0.51859267E-06 -0.59410152E-06 -0.66478787E-06 -0.73025028E-06
 -0.79012637E-06 -0.84409467E-06 -0.89187620E-06 -0.93323575E-06 -0.96798288E-06
 -0.99597254E-06 -0.10171055E-05 -0.10313285E-05 -0.10386337E-05 -0.10390587E-05
 -0.10326851E-05 -0.10196381E-05 -0.10000844E-05 -0.97423146E-06 -0.94232476E-06
 -0.90464638E-06 -0.86151248E-06 -0.81327080E-06 -0.76029809E-06 -0.70299727E-06
 -0.64179448E-06 -0.57713609E-06 -0.50948546E-06 -0.43931982E-06 -0.36712693E-06
 -0.29340185E-06 -0.21864357E-06 -0.14335179E-06 -0.68023617E-07  0.68495813E-08
  0.80785335E-07  0.15331307E-06  0.22397703E-06  0.29233903E-06  0.35798113E-06
  0.42050803E-06  0.47954946E-06  0.53476218E-06  0.58583194E-06  0.63247517E-06
  0.67444041E-06  0.71150960E-06  0.74349909E-06  0.77026039E-06  0.79168074E-06
  0.80768341E-06  0.81822778E-06  0.82330915E-06  0.82295837E-06  0.81724121E-06
  0.80625753E-06  0.79014023E-06  0.76905398E-06  0.74319380E-06  0.71278344E-06
  0.67807361E-06  0.63934000E-06  0.59688124E-06  0.55101666E-06  0.50208404E-06
  0.45043714E-06  0.39644329E-06  0.34048079E-06  0.28293639E-06  0.22420264E-06
  0.16467532E-06  0.10475082E-06  0.44823575E-07 -0.14716483E-07 -0.73486373E-07
 -0.13111248E-06 -0.18723286E-06 -0.24149947E-06 -0.29358022E-06 -0.34316098E-06
 -0.38994739E-06 -0.43366656E-06 -0.47406857E-06 -0.51092784E-06 -0.54404432E-06
 -0.57324447E-06 -0.59838213E-06 -0.61933912E-06 -0.63602572E-06 -0.64838090E-06
 -0.65637242E-06 -0.65999670E-06 -0.65927856E-06 -0.65427070E-06 -0.64505305E-06
 -0.63173199E-06 -0.61443935E-06 -0.59333126E-06 -0.56858689E-06 -0.54040703E-06
 -0.50901255E-06 -0.47464275E-06 -0.43755364E-06 -0.39801605E-06 -0.35631376E-06
 -0.31274147E-06 -0.26760284E-06 -0.22120838E-06 -0.17387339E-06 -0.12591585E-06
 -0.77654334E-07 -0.29405972E-07  0.18515626E-07  0.65802337E-07  0.11215347E-06
  0.15727763E-06  0.20089451E-06  0.24273656E-06  0.28255063E-06  0.32009940E-06
  0.35516279E-06  0.38753918E-06  0.41704653E-06  0.44352335E-06  0.46682950E-06
  0.48684691E-06  0.50348009E-06  0.51665652E-06  0.52632688E-06  0.53246509E-06
  0.53506830E-06  0.53415661E-06  0.52977271E-06  0.52198140E-06  0.51086889E-06
  0.49654207E-06  0.47912757E-06  0.45877074E-06  0.43563452E-06  0.40989820E-06
  0.38175612E-06  0.35141618E-06  0.31909844E-06  0.28503353E-06  0.24946103E-06
  0.21262788E-06  0.17478663E-06  0.13619383E-06  0.97108259E-07  0.57789273E-07
  0.18495088E-07 -0.20518866E-07 -0.59001576E-07 -0.96708027E-07 -0.13340073E-06
 -0.16885118E-06 -0.20284125E-06 -0.23516451E-06 -0.26562743E-06 -0.29405052E-06
 -0.32026932E-06 -0.34413537E-06 -0.36551696E-06 -0.38429987E-06 -0.40038787E-06
 -0.41370322E-06 -0.42418697E-06 -0.43179914E-06 -0.43651883E-06 -0.43834413E-06
 -0.43729194E-06 -0.43339772E-06 -0.42671504E-06 -0.41731506E-06 -0.40528589E-06
 -0.39073187E-06 -0.37377272E-06 -0.35454261E-06 -0.33318916E-06 -0.30987234E-06
   12.0942463269051      T
 Non local Part
           1           2   1.67780342188622     
  -9.33231433561541       -8.86705489132642       -8.86705489132642     
  -8.41155052585437     
 Reciprocal Space Part
  0.00000000E+00 -0.30755985E+01 -0.60980920E+01 -0.90152123E+01 -0.11776351E+02
 -0.14333357E+02 -0.16641288E+02 -0.18659122E+02 -0.20350391E+02 -0.21683750E+02
 -0.22633459E+02 -0.23179777E+02 -0.23309253E+02 -0.23014923E+02 -0.22296396E+02
 -0.21159835E+02 -0.19617836E+02 -0.17689199E+02 -0.15398604E+02 -0.12776191E+02
 -0.98570558E+01 -0.66806670E+01 -0.32902166E+01  0.26808585E+00  0.39457629E+01
  0.76928501E+01  0.11458695E+02  0.15192759E+02  0.18845415E+02  0.22368711E+02
  0.25717114E+02  0.28848190E+02  0.31723235E+02  0.34307836E+02  0.36572345E+02
  0.38492277E+02  0.40048608E+02  0.41227985E+02  0.42022831E+02  0.42431351E+02
  0.42457443E+02  0.42110513E+02  0.41405200E+02  0.40361012E+02  0.39001894E+02
  0.37355726E+02  0.35453755E+02  0.33329999E+02  0.31020601E+02  0.28563170E+02
  0.25996113E+02  0.23357966E+02  0.20686749E+02  0.18019342E+02  0.15390904E+02
  0.12834336E+02  0.10379813E+02  0.80543664E+01  0.58815511E+01  0.38811818E+01
  0.20691501E+01  0.45732211E+00 -0.94648389E+00 -0.21384425E+01 -0.31185916E+01
 -0.38906335E+01 -0.44616734E+01 -0.48419025E+01 -0.50442339E+01 -0.50839009E+01
 -0.49780271E+01 -0.47451790E+01 -0.44049100E+01 -0.39773070E+01 -0.34825481E+01
 -0.29404814E+01 -0.23702328E+01 -0.17898492E+01 -0.12159847E+01 -0.66363490E+00
 -0.14592111E+00  0.32607035E+00  0.74339455E+00  0.10992994E+01  0.13892234E+01
  0.16107435E+01  0.17634746E+01  0.18489280E+01  0.18703320E+01  0.18324226E+01
  0.17412092E+01  0.16037244E+01  0.14277625E+01  0.12216160E+01  0.99381499E+00
  0.75287759E+00  0.50707537E+00  0.26422053E+00  0.31478441E-01 -0.18479089E+00
 Real Space Part
  0.00000000E+00  0.35488627E+01  0.70827305E+01  0.10586679E+02  0.14045926E+02
  0.17445898E+02  0.20772302E+02  0.24011191E+02  0.27149033E+02  0.30172771E+02
  0.33069888E+02  0.35828466E+02  0.38437243E+02  0.40885667E+02  0.43163946E+02
  0.45263098E+02  0.47174993E+02  0.48892393E+02  0.50408987E+02  0.51719425E+02
  0.52819346E+02  0.53705394E+02  0.54375246E+02  0.54827615E+02  0.55062266E+02
  0.55080014E+02  0.54882725E+02  0.54473307E+02  0.53855699E+02  0.53034853E+02
  0.52016710E+02  0.50808175E+02  0.49417084E+02  0.47852165E+02  0.46122994E+02
  0.44239954E+02  0.42214178E+02  0.40057493E+02  0.37782365E+02  0.35401830E+02
  0.32929430E+02  0.30379139E+02  0.27765293E+02  0.25102511E+02  0.22405613E+02
  0.19689546E+02  0.16969296E+02  0.14259802E+02  0.11575877E+02  0.89321159E+01
  0.63428140E+01  0.38218787E+01  0.13827451E+01 -0.96170747E+00 -0.31992385E+01
 -0.53183264E+01 -0.73082464E+01 -0.91591461E+01 -0.10862117E+02 -0.12409263E+02
 -0.13793764E+02 -0.15009937E+02 -0.16053288E+02 -0.16920566E+02 -0.17609801E+02
 -0.18120349E+02 -0.18452917E+02 -0.18609593E+02 -0.18593865E+02 -0.18410627E+02
 -0.18066190E+02 -0.17568276E+02 -0.16926009E+02 -0.16149896E+02 -0.15251799E+02
 -0.14244910E+02 -0.13143702E+02 -0.11963884E+02 -0.10722346E+02 -0.94370951E+01
 -0.81271847E+01 -0.68126396E+01 -0.55143670E+01 -0.42540746E+01 -0.30541633E+01
 -0.19376364E+01 -0.92797513E+00 -0.49091639E-01  0.67472025E+00  0.12246338E+01
  0.16019247E+01  0.17873785E+01  0.17554457E+01  0.14809044E+01  0.96222196E+00
  0.69818702E-01  0.11181911E-01 -0.43362580E-02  0.64286290E-03  0.00000000E+00
 Reciprocal Space Part
  0.00000000E+00  0.39171962E+01  0.77725334E+01  0.11505109E+02  0.15055917E+02
  0.18368759E+02  0.21391108E+02  0.24074911E+02  0.26377326E+02  0.28261369E+02
  0.29696462E+02  0.30658891E+02  0.31132139E+02  0.31107115E+02  0.30582252E+02
  0.29563496E+02  0.28064168E+02  0.26104709E+02  0.23712319E+02  0.20920481E+02
  0.17768396E+02  0.14300322E+02  0.10564844E+02  0.66140776E+01  0.25028200E+01
 -0.17123298E+01 -0.59738738E+01 -0.10224322E+02 -0.14407091E+02 -0.18467373E+02
 -0.22352969E+02 -0.26015065E+02 -0.29408947E+02 -0.32494630E+02 -0.35237405E+02
 -0.37608290E+02 -0.39584374E+02 -0.41149056E+02 -0.42292175E+02 -0.43010026E+02
 -0.43305269E+02 -0.43186732E+02 -0.42669109E+02 -0.41772571E+02 -0.40522288E+02
 -0.38947874E+02 -0.37082772E+02 -0.34963589E+02 -0.32629389E+02 -0.30120967E+02
 -0.27480104E+02 -0.24748841E+02 -0.21968755E+02 -0.19180273E+02 -0.16422030E+02
 -0.13730277E+02 -0.11138352E+02 -0.86762277E+01 -0.63701322E+01 -0.42422558E+01
 -0.23105447E+01 -0.58858135E+00  0.91444668E+00  0.21936930E+01  0.32485173E+01
  0.40822746E+01  0.47020352E+01  0.51182445E+01  0.53443311E+01  0.53962732E+01
  0.52921349E+01  0.50515815E+01  0.46953871E+01  0.42449429E+01  0.37217786E+01
  0.31471057E+01  0.25413920E+01  0.19239745E+01  0.13127189E+01  0.72372961E+00
  0.17111590E+00 -0.33318459E+00 -0.77952259E+00 -0.11605948E+01 -0.14714441E+01
 -0.17094046E+01 -0.18739963E+01 -0.19667737E+01 -0.19911351E+01 -0.19520980E+01
 -0.18560492E+01 -0.17104762E+01 -0.15236879E+01 -0.13045311E+01 -0.10621122E+01
 -0.80552901E+00 -0.54361950E+00 -0.28473363E+00 -0.36532263E-01  0.19418279E+00
 Real Space Part
  0.00000000E+00 -0.35813649E+01 -0.71472670E+01 -0.10682317E+02 -0.14171272E+02
 -0.17599108E+02 -0.20951094E+02 -0.24212857E+02 -0.27370457E+02 -0.30410448E+02
 -0.33319947E+02 -0.36086693E+02 -0.38699108E+02 -0.41146355E+02 -0.43418384E+02
 -0.45505991E+02 -0.47400856E+02 -0.49095586E+02 -0.50583757E+02 -0.51859940E+02
 -0.52919732E+02 -0.53759780E+02 -0.54377801E+02 -0.54772589E+02 -0.54944030E+02
 -0.54893102E+02 -0.54621871E+02 -0.54133487E+02 -0.53432166E+02 -0.52523178E+02
 -0.51412816E+02 -0.50108370E+02 -0.48618095E+02 -0.46951167E+02 -0.45117642E+02
 -0.43128402E+02 -0.40995108E+02 -0.38730134E+02 -0.36346510E+02 -0.33857851E+02
 -0.31278287E+02 -0.28622391E+02 -0.25905101E+02 -0.23141637E+02 -0.20347421E+02
 -0.17537992E+02 -0.14728916E+02 -0.11935704E+02 -0.91737161E+01 -0.64580775E+01
 -0.38035850E+01 -0.12246192E+01  0.12649448E+01  0.36518245E+01  0.59234165E+01
  0.80678793E+01  0.10074216E+02  0.11932350E+02  0.13633203E+02  0.15168763E+02
  0.16532153E+02  0.17717692E+02  0.18720949E+02  0.19538800E+02  0.20169467E+02
  0.20612563E+02  0.20869119E+02  0.20941614E+02  0.20833991E+02  0.20551670E+02
  0.20101551E+02  0.19492010E+02  0.18732889E+02  0.17835475E+02  0.16812469E+02
  0.15677960E+02  0.14447372E+02  0.13137415E+02  0.11766031E+02  0.10352320E+02
  0.89164700E+01  0.74796739E+01  0.60640385E+01  0.46924969E+01  0.33886948E+01
  0.21768956E+01  0.10818486E+01  0.12874034E+00 -0.65685686E+00 -0.12551859E+01
 -0.16678076E+01 -0.18745519E+01 -0.18485505E+01 -0.15633004E+01 -0.10173997E+01
 -0.73875749E-01 -0.11831798E-01  0.45882790E-02 -0.68022574E-03  0.00000000E+00
 Non local Part
           0           2   1.67780342188622     
   1.03208848162463       -3.60525727960101       -3.60525727960101     
   13.0342914069670     
 Reciprocal Space Part
  0.12934056E+00 -0.10353720E+00 -0.79747340E+00 -0.19384783E+01 -0.35035713E+01
 -0.54612768E+01 -0.77723009E+01 -0.10390375E+02 -0.13263244E+02 -0.16333781E+02
 -0.19541195E+02 -0.22822312E+02 -0.26112892E+02 -0.29348960E+02 -0.32468115E+02
 -0.35410786E+02 -0.38121420E+02 -0.40549557E+02 -0.42650782E+02 -0.44387537E+02
 -0.45729763E+02 -0.46655376E+02 -0.47150554E+02 -0.47209845E+02 -0.46836094E+02
 -0.46040185E+02 -0.44840618E+02 -0.43262936E+02 -0.41339006E+02 -0.39106190E+02
 -0.36606410E+02 -0.33885153E+02 -0.30990418E+02 -0.27971647E+02 -0.24878656E+02
 -0.21760602E+02 -0.18664989E+02 -0.15636756E+02 -0.12717453E+02 -0.99445289E+01
 -0.73507299E+01 -0.49636391E+01 -0.28053454E+01 -0.89225377E+00  0.76496799E+00
  0.21613084E+01  0.32972062E+01  0.41782289E+01  0.48146479E+01  0.52209273E+01
  0.54151405E+01  0.54183335E+01  0.52538533E+01  0.49466589E+01  0.45226336E+01
  0.40079157E+01  0.34282630E+01  0.28084658E+01  0.21718208E+01  0.15396764E+01
  0.93105545E+00  0.36236388E+00 -0.15281516E+00 -0.60383911E+00 -0.98303869E+00
 -0.12856695E+01 -0.15097885E+01 -0.16560642E+01 -0.17275282E+01 -0.17292803E+01
 -0.16681569E+01 -0.15523760E+01 -0.13911680E+01 -0.11944057E+01 -0.97224354E+00
 -0.73477512E+00 -0.49171935E+00 -0.25214098E+00 -0.24212542E-01  0.18497841E+00
  0.36957376E+00  0.52503999E+00  0.64821431E+00  0.73730363E+00  0.79183959E+00
  0.81259395E+00  0.80145960E+00  0.76130325E+00  0.69579647E+00  0.60923171E+00
  0.50633040E+00  0.39204989E+00  0.27139541E+00  0.14924315E+00  0.30179510E-01
 -0.81639309E-01 -0.18260371E+00 -0.26974089E+00 -0.34077737E+00 -0.39417332E+00
 Real Space Part
 -0.47339269E+02 -0.47321247E+02 -0.47267190E+02 -0.47177123E+02 -0.47051085E+02
 -0.46889137E+02 -0.46691355E+02 -0.46457834E+02 -0.46188692E+02 -0.45884067E+02
 -0.45544123E+02 -0.45169048E+02 -0.44759058E+02 -0.44314401E+02 -0.43835355E+02
 -0.43322235E+02 -0.42775392E+02 -0.42195218E+02 -0.41582148E+02 -0.40936662E+02
 -0.40259289E+02 -0.39550607E+02 -0.38811249E+02 -0.38041903E+02 -0.37243315E+02
 -0.36416290E+02 -0.35561699E+02 -0.34680473E+02 -0.33773610E+02 -0.32842176E+02
 -0.31887303E+02 -0.30910194E+02 -0.29912120E+02 -0.28894421E+02 -0.27858507E+02
 -0.26805856E+02 -0.25738015E+02 -0.24656594E+02 -0.23563272E+02 -0.22459788E+02
 -0.21347941E+02 -0.20229587E+02 -0.19106636E+02 -0.17981049E+02 -0.16854832E+02
 -0.15730033E+02 -0.14608735E+02 -0.13493054E+02 -0.12385133E+02 -0.11287131E+02
 -0.10201225E+02 -0.91295961E+01 -0.80744284E+01 -0.70378983E+01 -0.60221690E+01
 -0.50293829E+01 -0.40616540E+01 -0.31210605E+01 -0.22096373E+01 -0.13293677E+01
 -0.48217661E+00  0.33007791E+00  0.11056117E+01  0.18427222E+01  0.25397956E+01
  0.31953142E+01  0.38078629E+01  0.43761363E+01  0.48989447E+01  0.53752202E+01
  0.58040225E+01  0.61845439E+01  0.65161141E+01  0.67982048E+01  0.70304331E+01
  0.72125655E+01  0.73445200E+01  0.74263686E+01  0.74583393E+01  0.74408165E+01
  0.73743419E+01  0.72596143E+01  0.70974884E+01  0.68889741E+01  0.66352331E+01
  0.63375782E+01  0.59974708E+01  0.56164913E+01  0.51962941E+01  0.47414827E+01
  0.42670814E+01  0.37780477E+01  0.32763198E+01  0.27638822E+01  0.22427937E+01
  0.17147960E+01  0.11817459E+01  0.65586137E+00  0.79631267E-01  0.00000000E+00
 Reciprocal Space Part
 -0.12782586E+02 -0.12808601E+02 -0.12885860E+02 -0.13012026E+02 -0.13183262E+02
 -0.13394329E+02 -0.13638707E+02 -0.13908756E+02 -0.14195890E+02 -0.14490793E+02
 -0.14783632E+02 -0.15064295E+02 -0.15322629E+02 -0.15548682E+02 -0.15732938E+02
 -0.15866537E+02 -0.15941486E+02 -0.15950843E+02 -0.15888881E+02 -0.15751215E+02
 -0.15534903E+02 -0.15238515E+02 -0.14862160E+02 -0.14407485E+02 -0.13877629E+02
 -0.13277158E+02 -0.12611954E+02 -0.11889085E+02 -0.11116648E+02 -0.10303591E+02
 -0.94595167E+01 -0.85944781E+01 -0.77187685E+01 -0.68427072E+01 -0.59764320E+01
 -0.51296989E+01 -0.43116955E+01 -0.35308726E+01 -0.27947952E+01 -0.21100186E+01
 -0.14819898E+01 -0.91497663E+00 -0.41202583E+00  0.25050851E-01  0.39566229E+00
  0.70039703E+00  0.94095749E+00  0.11200719E+01  0.12413866E+01  0.13093430E+01
  0.13290410E+01  0.13060944E+01  0.12464819E+01  0.11563963E+01  0.10420967E+01
  0.90976769E+00  0.76538705E+00  0.61460636E+00  0.46264612E+00  0.31420741E+00
  0.17340165E+00  0.43699070E-01 -0.72103608E-01 -0.17189657E+00 -0.25425204E+00
 -0.31840236E+00 -0.36420249E+00 -0.39207883E+00 -0.40296660E+00 -0.39823813E+00
 -0.37962442E+00 -0.34913275E+00 -0.30896268E+00 -0.26142294E+00 -0.20885148E+00
 -0.15354074E+00 -0.97669950E-01 -0.43245899E-01  0.79466066E-02  0.54383794E-01
  0.94831038E-01  0.12835991E+00  0.15435437E+00  0.17250668E+00  0.18280382E+00
  0.18550539E+00  0.18111437E+00  0.17034208E+00  0.15406874E+00  0.13330130E+00
  0.10913000E+00  0.82685125E-01  0.55095392E-01  0.27449176E-01  0.75968794E-03
 -0.24065005E-01 -0.46246431E-01 -0.65154173E-01 -0.80318072E-01 -0.91434171E-01
 Real Space Part
 -0.14055452E+02 -0.14050679E+02 -0.14036364E+02 -0.14012510E+02 -0.13979128E+02
 -0.13936228E+02 -0.13883829E+02 -0.13821951E+02 -0.13750619E+02 -0.13669864E+02
 -0.13579722E+02 -0.13480234E+02 -0.13371450E+02 -0.13253426E+02 -0.13126224E+02
 -0.12989917E+02 -0.12844587E+02 -0.12690324E+02 -0.12527230E+02 -0.12355419E+02
 -0.12175015E+02 -0.11986157E+02 -0.11788996E+02 -0.11583696E+02 -0.11370440E+02
 -0.11149421E+02 -0.10920852E+02 -0.10684961E+02 -0.10441993E+02 -0.10192211E+02
 -0.99358929E+01 -0.96733384E+01 -0.94048629E+01 -0.91308006E+01 -0.88515038E+01
 -0.85673429E+01 -0.82787063E+01 -0.79859997E+01 -0.76896465E+01 -0.73900864E+01
 -0.70877755E+01 -0.67831854E+01 -0.64768021E+01 -0.61691257E+01 -0.58606688E+01
 -0.55519558E+01 -0.52435214E+01 -0.49359096E+01 -0.46296721E+01 -0.43253669E+01
 -0.40235568E+01 -0.37248077E+01 -0.34296868E+01 -0.31387612E+01 -0.28525956E+01
 -0.25717510E+01 -0.22967822E+01 -0.20282362E+01 -0.17666504E+01 -0.15125504E+01
 -0.12664478E+01 -0.10288388E+01 -0.80020192E+00 -0.58099591E+00 -0.37165820E+00
 -0.17260286E+00  0.15781174E-01  0.19313181E+00  0.35911548E+00  0.51342873E+00
  0.65579970E+00  0.78598951E+00  0.90379358E+00  0.10090428E+01  0.11016044E+01
  0.11813833E+01  0.12483225E+01  0.13024038E+01  0.13436485E+01  0.13721175E+01
  0.13879118E+01  0.13911720E+01  0.13820789E+01  0.13608528E+01  0.13277530E+01
  0.12830774E+01  0.12271623E+01  0.11603757E+01  0.10831078E+01  0.99638311E+00
  0.90347712E+00  0.80555985E+00  0.70315927E+00  0.59681109E+00  0.48706534E+00
  0.37439986E+00  0.25931641E+00  0.14461671E+00  0.17614329E-01  0.00000000E+00
 Non local Part
           2           1   1.67780342188622     
  -1.19056655773121     
 Reciprocal Space Part
  0.00000000E+00  0.19227737E-01  0.76641634E-01  0.17143785E+00  0.30229025E+00
  0.46737062E+00  0.66437642E+00  0.89056570E+00  0.11427986E+01  0.14175848E+01
  0.17111358E+01  0.20194215E+01  0.23382307E+01  0.26632327E+01  0.29900415E+01
  0.33142791E+01  0.36316390E+01  0.39379475E+01  0.42292223E+01  0.45017272E+01
  0.47520231E+01  0.49770129E+01  0.51739809E+01  0.53406257E+01  0.54750864E+01
  0.55759609E+01  0.56423176E+01  0.56736990E+01  0.56701186E+01  0.56320493E+01
  0.55604067E+01  0.54565241E+01  0.53221229E+01  0.51592769E+01  0.49703722E+01
  0.47580634E+01  0.45252268E+01  0.42749106E+01  0.40102853E+01  0.37345922E+01
  0.34510933E+01  0.31630221E+01  0.28735367E+01  0.25856755E+01  0.23023166E+01
  0.20261411E+01  0.17596014E+01  0.15048939E+01  0.12639375E+01  0.10383572E+01
  0.82947379E+00  0.63829865E+00  0.46553403E+00  0.31157883E+00  0.17653907E+00
  0.60242968E-01 -0.37739943E-01 -0.11807613E+00 -0.18164240E+00 -0.22949793E+00
 -0.26285450E+00 -0.28304562E+00 -0.29149531E+00 -0.28968687E+00 -0.27913254E+00
 -0.26134438E+00 -0.23780699E+00 -0.20995241E+00 -0.17913771E+00 -0.14662548E+00
 -0.11356744E+00 -0.80991384E-01 -0.49791551E-01 -0.20722335E-01  0.56046445E-02
  0.28720297E-01  0.48294811E-01  0.64131673E-01  0.76159242E-01  0.84420217E-01
  0.89059379E-01  0.90309966E-01  0.88479109E-01  0.83932694E-01  0.77080058E-01
  0.68358875E-01  0.58220584E-01  0.47116659E-01  0.35486014E-01  0.23743739E-01
  0.12271397E-01  0.14089737E-02 -0.85514044E-02 -0.17369956E-01 -0.24861946E-01
 -0.30898650E-01 -0.35406681E-01 -0.38365809E-01 -0.39805436E-01 -0.39799912E-01
 Real Space Part
  0.00000000E+00  0.38760972E-02  0.15486930E-01  0.34780194E-01  0.61668963E-01
  0.96032055E-01  0.13771454E+00  0.18652842E+00  0.24225337E+00  0.30463775E+00
  0.37339961E+00  0.44822793E+00  0.52878392E+00  0.61470248E+00  0.70559379E+00
  0.80104493E+00  0.90062172E+00  0.10038705E+01  0.11103203E+01  0.12194846E+01
  0.13308638E+01  0.14439469E+01  0.15582143E+01  0.16731400E+01  0.17881934E+01
  0.19028425E+01  0.20165555E+01  0.21288037E+01  0.22390638E+01  0.23468202E+01
  0.24515674E+01  0.25528123E+01  0.26500767E+01  0.27428991E+01  0.28308374E+01
  0.29134708E+01  0.29904016E+01  0.30612576E+01  0.31256935E+01  0.31833928E+01
  0.32340696E+01  0.32774697E+01  0.33133722E+01  0.33415907E+01  0.33619741E+01
  0.33744079E+01  0.33788146E+01  0.33751544E+01  0.33634254E+01  0.33436641E+01
  0.33159453E+01  0.32803820E+01  0.32371248E+01  0.31863618E+01  0.31283177E+01
  0.30632528E+01  0.29914623E+01  0.29132746E+01  0.28290503E+01  0.27391805E+01
  0.26440850E+01  0.25442104E+01  0.24400283E+01  0.23320328E+01  0.22207386E+01
  0.21066782E+01  0.19903995E+01  0.18724635E+01  0.17534409E+01  0.16339103E+01
  0.15144543E+01  0.13956575E+01  0.12781031E+01  0.11623703E+01  0.10490310E+01
  0.93864715E+00  0.83176798E+00  0.72892686E+00  0.63063874E+00  0.53739739E+00
  0.44967276E+00  0.36790853E+00  0.29251968E+00  0.22389020E+00  0.16237107E+00
  0.10827812E+00  0.61890258E-01  0.23449426E-01 -0.68380760E-02 -0.28990014E-01
 -0.43685491E-01 -0.50928341E-01 -0.50558991E-01 -0.42468823E-01 -0.27239724E-01
 -0.19576712E-02 -0.31340695E-03  0.12153677E-03 -0.18018181E-04  0.00000000E+00
 PAW radial sets
         373   1.33834679215167     
(5E20.12)                                
 augmentation charges (non sperical)
  0.615159473126E+00  0.548671205319E+00 -0.153872864221E+00  0.452566589241E+00  0.297146768528E+00
  0.548671205319E+00  0.489529318676E+00 -0.137871058988E+00  0.403181826670E+00  0.265491544172E+00
 -0.153872864221E+00 -0.137871058988E+00  0.246266389751E-02  0.195025932294E-01 -0.840639152664E-01
  0.452566589241E+00  0.403181826670E+00  0.195025932294E-01 -0.158963393339E+00  0.244164628563E+00
  0.297146768528E+00  0.265491544172E+00 -0.840639152664E-01  0.244164628563E+00  0.162502862378E+00
 uccopancies in atom
  0.200000000005E+01  0.000000000000E+00  0.000000000000E+00  0.000000000000E+00  0.000000000000E+00
  0.000000000000E+00  0.000000000000E+00  0.000000000000E+00  0.000000000000E+00  0.000000000000E+00
  0.000000000000E+00  0.000000000000E+00  0.100000000215E+01  0.000000000000E+00  0.000000000000E+00
  0.000000000000E+00  0.000000000000E+00  0.000000000000E+00  0.000000000000E+00  0.000000000000E+00
  0.000000000000E+00  0.000000000000E+00  0.000000000000E+00  0.000000000000E+00  0.000000000000E+00
 grid
  0.394465137901E-04  0.407292160115E-04  0.420536285092E-04  0.434211075974E-04  0.448330536940E-04
  0.462909127554E-04  0.477961777565E-04  0.493503902202E-04  0.509551417960E-04  0.526120758897E-04
  0.543228893466E-04  0.560893341891E-04  0.579132194111E-04  0.597964128306E-04  0.617408430020E-04
  0.637485011919E-04  0.658214434176E-04  0.679617925531E-04  0.701717405030E-04  0.724535504471E-04
  0.748095591581E-04  0.772421793949E-04  0.797539023732E-04  0.823473003167E-04  0.850250290916E-04
  0.877898309261E-04  0.906445372190E-04  0.935920714389E-04  0.966354521184E-04  0.997777959454E-04
  0.103022320954E-03  0.106372349823E-03  0.109831313272E-03  0.113402753584E-03  0.117090328225E-03
  0.120897813595E-03  0.124829108890E-03  0.128888240100E-03  0.133079364131E-03  0.137406773061E-03
  0.141874898533E-03  0.146488316298E-03  0.151251750901E-03  0.156170080513E-03  0.161248341935E-03
  0.166491735749E-03  0.171905631649E-03  0.177495573938E-03  0.183267287206E-03  0.189226682190E-03
  0.195379861832E-03  0.201733127525E-03  0.208292985570E-03  0.215066153833E-03  0.222059568631E-03
  0.229280391832E-03  0.236736018190E-03  0.244434082917E-03  0.252382469505E-03  0.260589317796E-03
  0.269063032320E-03  0.277812290901E-03  0.286846053544E-03  0.296173571612E-03  0.305804397298E-03
  0.315748393410E-03  0.326015743468E-03  0.336616962136E-03  0.347562905988E-03  0.358864784627E-03
  0.370534172165E-03  0.382583019074E-03  0.395023664426E-03  0.407868848530E-03  0.421131725976E-03
  0.434825879109E-03  0.448965331940E-03  0.463564564503E-03  0.478638527689E-03  0.494202658552E-03
  0.510272896123E-03  0.526865697730E-03  0.543998055851E-03  0.561687515518E-03  0.579952192284E-03
  0.598810790773E-03  0.618282623839E-03  0.638387632340E-03  0.659146405561E-03  0.680580202301E-03
  0.702710972640E-03  0.725561380420E-03  0.749154826457E-03  0.773515472501E-03  0.798668265982E-03
  0.824638965558E-03  0.851454167495E-03  0.879141332904E-03  0.907728815860E-03  0.937245892446E-03
  0.967722790726E-03  0.999190721707E-03  0.103168191130E-02  0.106522963332E-02  0.109986824358E-02
  0.113563321502E-02  0.117256117412E-02  0.121068993832E-02  0.125005855481E-02  0.129070734050E-02
  0.133267792329E-02  0.137601328473E-02  0.142075780402E-02  0.146695730344E-02  0.151465909534E-02
  0.156391203051E-02  0.161476654826E-02  0.166727472806E-02  0.172149034287E-02  0.177746891423E-02
  0.183526776908E-02  0.189494609850E-02  0.195656501831E-02  0.202018763167E-02  0.208587909370E-02
  0.215370667819E-02  0.222373984653E-02  0.229605031879E-02  0.237071214721E-02  0.244780179203E-02
  0.252739819979E-02  0.260958288416E-02  0.269444000944E-02  0.278205647674E-02  0.287252201298E-02
  0.296592926278E-02  0.306237388331E-02  0.316195464231E-02  0.326477351917E-02  0.337093580940E-02
  0.348055023246E-02  0.359372904311E-02  0.371058814634E-02  0.383124721607E-02  0.395582981774E-02
  0.408446353483E-02  0.421728009949E-02  0.435441552750E-02  0.449601025751E-02  0.464220929491E-02
  0.479316236029E-02  0.494902404277E-02  0.510995395833E-02  0.527611691328E-02  0.544768307300E-02
  0.562482813623E-02  0.580773351499E-02  0.599658652037E-02  0.619158055436E-02  0.639291530789E-02
  0.660079696533E-02  0.681543841566E-02  0.703705947050E-02  0.726588708917E-02  0.750215561113E-02
  0.774610699602E-02  0.799799107136E-02  0.825806578845E-02  0.852659748653E-02  0.880386116554E-02
  0.909014076769E-02  0.938572946833E-02  0.969092997611E-02  0.100060548430E-01  0.103314267845E-01
  0.106673790097E-01  0.110142555633E-01  0.113724116770E-01  0.117422141340E-01  0.121240416444E-01
  0.125182852329E-01  0.129253486394E-01  0.133456487323E-01  0.137796159358E-01  0.142276946701E-01
  0.146903438070E-01  0.151680371397E-01  0.156612638678E-01  0.161705290987E-01  0.166963543645E-01
  0.172392781561E-01  0.177998564750E-01  0.183786634024E-01  0.189762916871E-01  0.195933533527E-01
  0.202304803243E-01  0.208883250755E-01  0.215675612970E-01  0.222688845859E-01  0.229930131585E-01
  0.237406885859E-01  0.245126765529E-01  0.253097676428E-01  0.261327781464E-01  0.269825508984E-01
  0.278599561404E-01  0.287658924120E-01  0.297012874711E-01  0.306670992440E-01  0.316643168064E-01
  0.326939613961E-01  0.337570874592E-01  0.348547837298E-01  0.359881743446E-01  0.371584199948E-01
  0.383667191141E-01  0.396143091064E-01  0.409024676130E-01  0.422325138206E-01  0.436058098128E-01
  0.450237619647E-01  0.464878223832E-01  0.479994903942E-01  0.495603140778E-01  0.511718918537E-01
  0.528358741185E-01  0.545539649355E-01  0.563279237797E-01  0.581595673400E-01  0.600507713795E-01
  0.620034726564E-01  0.640196709075E-01  0.661014308959E-01  0.682508845257E-01  0.704702330253E-01
  0.727617492016E-01  0.751277797673E-01  0.775707477444E-01  0.800931549457E-01  0.826975845366E-01
  0.853867036804E-01  0.881632662704E-01  0.910301157490E-01  0.939901880208E-01  0.970465144584E-01
  0.100202225007E+00  0.103460551390E+00  0.106824830419E+00  0.110298507409E+00  0.113885139709E+00
  0.117588400343E+00  0.121412081775E+00  0.125360099789E+00  0.129436497499E+00  0.133645449493E+00
  0.137991266106E+00  0.142478397833E+00  0.147111439891E+00  0.151895136918E+00  0.156834387838E+00
  0.161934250877E+00  0.167199948739E+00  0.172636873959E+00  0.178250594424E+00  0.184046859074E+00
  0.190031603790E+00  0.196210957474E+00  0.202591248325E+00  0.209179010317E+00  0.215980989895E+00
  0.223004152879E+00  0.230255691604E+00  0.237743032277E+00  0.245473842590E+00  0.253456039569E+00
  0.261697797680E+00  0.270207557205E+00  0.278994032880E+00  0.288066222824E+00  0.297433417753E+00
  0.307105210492E+00  0.317091505804E+00  0.327402530526E+00  0.338048844049E+00  0.349041349129E+00
  0.360391303051E+00  0.372110329160E+00  0.384210428763E+00  0.396703993418E+00  0.409603817629E+00
  0.422923111941E+00  0.436675516478E+00  0.450875114901E+00  0.465536448842E+00  0.480674532787E+00
  0.496304869457E+00  0.512443465682E+00  0.529106848796E+00  0.546312083559E+00  0.564076789634E+00
  0.582419159634E+00  0.601357977747E+00  0.620912638979E+00  0.641103169011E+00  0.661950244710E+00
  0.683475215304E+00  0.705700124244E+00  0.728647731778E+00  0.752341538261E+00  0.776805808223E+00
  0.802065595213E+00  0.828146767460E+00  0.855076034365E+00  0.882880973849E+00  0.911590060599E+00
  0.941232695231E+00  0.971839234392E+00  0.100344102185E+01  0.103607042060E+01  0.106976084600E+01
  0.110454679999E+01  0.114046390641E+01  0.117754894754E+01  0.121583990169E+01  0.125537598214E+01
  0.129619767730E+01  0.133834679215E+01  0.138186649107E+01  0.142680134202E+01  0.147319736223E+01
  0.152110206527E+01  0.157056450975E+01  0.162163534952E+01  0.167436688561E+01  0.172881311969E+01
  0.178502980948E+01  0.184307452578E+01  0.190300671145E+01  0.196488774229E+01  0.202878098987E+01
  0.209475188647E+01  0.216286799205E+01  0.223319906346E+01  0.230581712585E+01  0.238079654648E+01
  0.245821411081E+01  0.253814910119E+01  0.262068337806E+01  0.270590146371E+01  0.279389062891E+01
  0.288474098226E+01  0.297854556245E+01  0.307540043358E+01  0.317540478349E+01  0.327866102539E+01
  0.338527490267E+01  0.349535559728E+01  0.360901584146E+01  0.372637203323E+01  0.384754435559E+01
  0.397265689958E+01  0.410183779139E+01  0.423521932353E+01  0.437293809035E+01  0.451513512791E+01
  0.466195605838E+01  0.481355123924E+01  0.497007591720E+01  0.513169038720E+01  0.529856015659E+01
  0.547085611460E+01  0.564875470733E+01  0.583243811849E+01
 aepotential
  0.194286236349E+05  0.194339193428E+05  0.194041290395E+05  0.193394124859E+05  0.192402000486E+05
  0.191072024368E+05  0.189413787713E+05  0.187439386413E+05  0.185162600511E+05  0.182599735616E+05
  0.179768576208E+05  0.176688320868E+05  0.173379684257E+05  0.169864131498E+05  0.166164003490E+05
  0.162301805122E+05  0.158300519775E+05  0.154182704878E+05  0.149970957774E+05  0.145686678901E+05
  0.141351322872E+05  0.136984899487E+05  0.132606182753E+05  0.128233317595E+05  0.123882584243E+05
  0.119569353600E+05  0.115307185370E+05  0.111108599802E+05  0.106984419822E+05  0.102944245374E+05
  0.989962320507E+04  0.951472754527E+04  0.914030282717E+04  0.877679807670E+04  0.842455440547E+04
  0.808381344579E+04  0.775472614590E+04  0.743736151314E+04  0.713171541503E+04  0.683771908552E+04
  0.655524733123E+04  0.628412631586E+04  0.602414090021E+04  0.577504142178E+04  0.553654999910E+04
  0.530836622833E+04  0.509017229091E+04  0.488163765044E+04  0.468242298792E+04  0.449218416987E+04
  0.431057467959E+04  0.413724910321E+04  0.397186470111E+04  0.381408390843E+04  0.366357471502E+04
  0.352001568840E+04  0.338308920008E+04  0.325249177529E+04  0.312792808678E+04  0.300911389046E+04
  0.289577484252E+04  0.278764789456E+04  0.268448188715E+04  0.258603560912E+04  0.249207803713E+04
  0.240239084325E+04  0.231676245350E+04  0.223499461274E+04  0.215689764486E+04  0.208228998777E+04
  0.201100032782E+04  0.194286608801E+04  0.187773166397E+04  0.181545057617E+04  0.175588331354E+04
  0.169889761788E+04  0.164436821500E+04  0.159217557367E+04  0.154220738656E+04  0.149435661516E+04
  0.144852152202E+04  0.140460616404E+04  0.136251924900E+04  0.132217418686E+04  0.128348899460E+04
  0.124638576189E+04  0.121079061524E+04  0.117663348726E+04  0.114384784318E+04  0.111237049144E+04
  0.108214145899E+04  0.105310387205E+04  0.102520338658E+04  0.998388769642E+03  0.972611148005E+03
  0.947824012311E+03  0.923983118073E+03  0.901046512455E+03  0.878974088138E+03  0.857727928052E+03
  0.837271655349E+03  0.817570777271E+03  0.798592414055E+03  0.780305220894E+03  0.762679271823E+03
  0.745686155094E+03  0.729298631098E+03  0.713490749960E+03  0.698237780097E+03  0.683516071836E+03
  0.669303044430E+03  0.655577079645E+03  0.642317576393E+03  0.629504807995E+03  0.617119895341E+03
  0.605144765255E+03  0.593562137797E+03  0.582355455884E+03  0.571508852695E+03  0.561007114310E+03
  0.550835678023E+03  0.540980537299E+03  0.531428291334E+03  0.522166045866E+03  0.513181433474E+03
  0.504462560177E+03  0.495998004084E+03  0.487776771505E+03  0.479788289259E+03  0.472022380657E+03
  0.464469262647E+03  0.457119452833E+03  0.449963900827E+03  0.442993797994E+03  0.436200684134E+03
  0.429576412290E+03  0.423113046986E+03  0.416803004776E+03  0.410638894301E+03  0.404613594951E+03
  0.398720202550E+03  0.392952052383E+03  0.387302665356E+03  0.381765781483E+03  0.376335325417E+03
  0.371005401577E+03  0.365770292276E+03  0.360624446388E+03  0.355562468787E+03  0.350579119023E+03
  0.345669300590E+03  0.340828061712E+03  0.336050576617E+03  0.331332155859E+03  0.326668226442E+03
  0.322054341606E+03  0.317486163340E+03  0.312959466138E+03  0.308470133487E+03  0.304014149341E+03
  0.299587600312E+03  0.295186669829E+03  0.290807637849E+03  0.286446876006E+03  0.282100848619E+03
  0.277766109902E+03  0.273439302016E+03  0.269117155854E+03  0.264796488734E+03  0.260474205367E+03
  0.256147297050E+03  0.251812842278E+03  0.247468007390E+03  0.243110047159E+03  0.238736307098E+03
  0.234344222348E+03  0.229931323764E+03  0.225495237343E+03  0.221033685975E+03  0.216544496471E+03
  0.212025597451E+03  0.207475029741E+03  0.202890943957E+03  0.198271611185E+03  0.193615423327E+03
  0.188920902075E+03  0.184186704456E+03  0.179411629222E+03  0.174594624972E+03  0.169734798602E+03
  0.164831424800E+03  0.159883954963E+03  0.154892030123E+03  0.149855492097E+03  0.144774396711E+03
  0.139649029933E+03  0.134479923065E+03  0.129267871197E+03  0.124013953012E+03  0.118719553111E+03
  0.113386384452E+03  0.108016515914E+03  0.102612399131E+03  0.971768990155E+02  0.917133254872E+02
  0.862254661151E+02  0.807176195626E+02  0.751946279620E+02  0.696619066989E+02  0.641254689935E+02
  0.585919424906E+02  0.530685733099E+02  0.475632123135E+02  0.420842775925E+02  0.366406863222E+02
  0.312417472318E+02  0.258970075509E+02  0.206160472926E+02  0.154082191109E+02  0.102823368917E+02
  0.524632887263E+01  0.306885142403E+00 -0.453084502397E+01 -0.926342294521E+01 -0.138890380200E+02
 -0.184070226967E+02 -0.228168004906E+02 -0.271161305841E+02 -0.312986277493E+02 -0.353507273306E+02
 -0.392486451446E+02 -0.429561968265E+02 -0.464246448103E+02 -0.495956287658E+02 -0.524076318376E+02
 -0.548053714995E+02 -0.567503732078E+02 -0.582302894715E+02 -0.592645603648E+02 -0.599046547876E+02
 -0.602281818761E+02 -0.603276746020E+02 -0.602966699138E+02 -0.602171431964E+02 -0.601519061112E+02
 -0.601432841332E+02 -0.602165902960E+02 -0.603855426106E+02 -0.606571859853E+02 -0.610351736527E+02
 -0.615214230482E+02 -0.621166991985E+02 -0.628207092175E+02 -0.636321048493E+02 -0.645485688622E+02
 -0.655669872156E+02 -0.666836796500E+02 -0.678946196488E+02 -0.691956139875E+02 -0.705824154529E+02
 -0.720507746632E+02 -0.735964256946E+02 -0.752150282874E+02 -0.769020519323E+02 -0.786526255620E+02
 -0.804613381009E+02 -0.823219966085E+02 -0.842273383776E+02 -0.861687071334E+02 -0.881357092603E+02
 -0.901158963535E+02 -0.920945447602E+02 -0.940546543175E+02 -0.959773247388E+02 -0.978427113366E+02
 -0.996317600271E+02 -0.101328874788E+03 -0.102925528246E+03 -0.104424526435E+03 -0.105843940421E+03
 -0.107218206202E+03 -0.108591048122E+03 -0.109991866965E+03 -0.111390377940E+03 -0.112645235534E+03
 -0.113499680038E+03 -0.113685058107E+03 -0.113111314019E+03 -0.111985211558E+03 -0.110686194322E+03
 -0.109497541385E+03 -0.108488745074E+03 -0.107600367796E+03 -0.106754368861E+03 -0.105899333025E+03
 -0.105011984950E+03 -0.104086909262E+03 -0.103126996226E+03 -0.102137053343E+03 -0.101120452760E+03
 -0.100078081762E+03 -0.990086781134E+02 -0.979097224332E+02 -0.967783520592E+02 -0.956120509545E+02
 -0.944090654560E+02 -0.931685929042E+02 -0.918908089613E+02 -0.905767968468E+02 -0.892284192068E+02
 -0.878481560075E+02 -0.864389316468E+02 -0.850039253941E+02 -0.835463827085E+02 -0.820694237510E+02
 -0.805758618798E+02 -0.790680468799E+02 -0.775477558029E+02 -0.760161581858E+02 -0.744738820537E+02
 -0.729211956033E+02 -0.713582951050E+02 -0.697856613894E+02 -0.682044200813E+02 -0.666166295285E+02
 -0.650254344915E+02 -0.634350639507E+02 -0.618507083485E+02 -0.602783626208E+02 -0.587247294948E+02
 -0.571971895278E+02 -0.557036034353E+02 -0.542513278128E+02 -0.528445571529E+02 -0.514796841890E+02
 -0.501407307792E+02 -0.488004568811E+02 -0.474326002052E+02 -0.460301924445E+02 -0.446119597751E+02
 -0.432082462709E+02 -0.418426313298E+02 -0.405257691328E+02 -0.392594460557E+02 -0.380420340963E+02
 -0.368717633463E+02 -0.357476695182E+02 -0.346695460916E+02 -0.336371454211E+02 -0.326495186137E+02
 -0.317044009746E+02 -0.307981023500E+02 -0.299259452514E+02 -0.290829698420E+02 -0.282645419903E+02
 -0.274669022280E+02 -0.266872841734E+02 -0.259239212935E+02 -0.251758995078E+02 -0.244429817203E+02
 -0.237254341283E+02 -0.230238717582E+02 -0.223391237778E+02 -0.216721131626E+02 -0.210237453730E+02
 -0.203948045013E+02 -0.197858607454E+02 -0.191971977102E+02 -0.186287696477E+02 -0.180801959352E+02
 -0.175507935415E+02 -0.170396404477E+02 -0.165456571937E+02
 core charge-density
  0.192591065365E-03  0.205173414504E-03  0.218577132045E-03  0.232855769139E-03  0.248066361713E-03
  0.264269656585E-03  0.281530352193E-03  0.299917354864E-03  0.319504051627E-03  0.340368600626E-03
  0.362594240266E-03  0.386269618277E-03  0.411489141984E-03  0.438353351134E-03  0.466969314704E-03
  0.497451053249E-03  0.529919988386E-03  0.564505421165E-03  0.601345041140E-03  0.640585468133E-03
  0.682382828694E-03  0.726903369540E-03  0.774324110264E-03  0.824833537781E-03  0.878632345232E-03
  0.935934218026E-03  0.996966670143E-03  0.106197193369E-02  0.113120790525E-02  0.120494915237E-02
  0.128348798421E-02  0.136713559013E-02  0.145622325059E-02  0.155110362493E-02  0.165215212064E-02
  0.175976834935E-02  0.187437767490E-02  0.199643285903E-02  0.212641581108E-02  0.226483944766E-02
  0.241224966952E-02  0.256922746248E-02  0.273639113024E-02  0.291439866700E-02  0.310395027855E-02
  0.330579106076E-02  0.352071384517E-02  0.374956222159E-02  0.399323374862E-02  0.425268336332E-02
  0.452892700192E-02  0.482304544433E-02  0.513618839570E-02  0.546957881920E-02  0.582451753487E-02
  0.620238810018E-02  0.660466198897E-02  0.703290408629E-02  0.748877851725E-02  0.797405482968E-02
  0.849061455074E-02  0.904045813916E-02  0.962571235565E-02  0.102486380752E-01  0.109116385666E-01
  0.116172682650E-01  0.123682420654E-01  0.131674451662E-01  0.140179434924E-01  0.149229947311E-01
  0.158860600120E-01  0.169108162684E-01  0.180011693138E-01  0.191612676737E-01  0.203955172112E-01
  0.217085965880E-01  0.231054736041E-01  0.245914224601E-01  0.261720419909E-01  0.278532749154E-01
  0.296414281555E-01  0.315431942749E-01  0.335656740906E-01  0.357164005130E-01  0.380033636711E-01
  0.404350373809E-01  0.430204070163E-01  0.457689988452E-01  0.486909108903E-01  0.517968453804E-01
  0.550981428546E-01  0.586068179852E-01  0.623355971830E-01  0.662979580516E-01  0.705081707538E-01
  0.749813413554E-01  0.797334572080E-01  0.847814344328E-01  0.901431675632E-01  0.958375814029E-01
  0.101884685150E+00  0.108305628835E+00  0.115122762120E+00  0.122359695480E+00  0.130041363812E+00
  0.138194092482E+00  0.146845665811E+00  0.156025398018E+00  0.165764206574E+00  0.176094687966E+00
  0.187051195800E+00  0.198669921177E+00  0.210988975264E+00  0.224048473929E+00  0.237890624310E+00
  0.252559813138E+00  0.268102696609E+00  0.284568291568E+00  0.302008067712E+00  0.320476040493E+00
  0.340028864336E+00  0.360725925751E+00  0.382629435838E+00  0.405804521642E+00  0.430319315737E+00
  0.456245043339E+00  0.483656106177E+00  0.512630162263E+00  0.543248200601E+00  0.575594609791E+00
  0.609757239366E+00  0.645827452591E+00  0.683900169346E+00  0.724073897564E+00  0.766450751600E+00
  0.811136455731E+00  0.858240330854E+00  0.907875262351E+00  0.960157646819E+00  0.101520731535E+01
  0.107314743074E+01  0.113410435600E+01  0.119820749118E+01  0.126558907561E+01  0.133638395218E+01
  0.141072929050E+01  0.148876426526E+01  0.157062968637E+01  0.165646757686E+01  0.174642069497E+01
  0.184063199629E+01  0.193924403210E+01  0.204239827990E+01  0.215023440213E+01  0.226288942920E+01
  0.238049686315E+01  0.250318569825E+01  0.263107935534E+01  0.276429452682E+01  0.290293992984E+01
  0.304711496570E+01  0.319690828390E+01  0.335239625042E+01  0.351364132036E+01  0.368069031628E+01
  0.385357261466E+01  0.403229824433E+01  0.421685590212E+01  0.440721089280E+01  0.460330300216E+01
  0.480504431411E+01  0.501231698508E+01  0.522497099132E+01  0.544282186736E+01  0.566564845679E+01
  0.589319069924E+01  0.612514748110E+01  0.636117457997E+01  0.660088273697E+01  0.684383589395E+01
  0.708954963602E+01  0.733748988347E+01  0.758707187989E+01  0.783765952683E+01  0.808856511736E+01
  0.833904952398E+01  0.858832289735E+01  0.883554593395E+01  0.907983177116E+01  0.932024856739E+01
  0.955582282373E+01  0.978554350056E+01  0.100083669787E+02  0.102232229087E+02  0.104290209847E+02
  0.106246586708E+02  0.108090298958E+02  0.109810347196E+02  0.111395899610E+02  0.112836407556E+02
  0.114121729982E+02  0.115242265986E+02  0.116189094590E+02  0.116954120550E+02  0.117530224767E+02
  0.117911417582E+02  0.118092992973E+02  0.118071681377E+02  0.117845798592E+02  0.117415387965E+02
  0.116782352815E+02  0.115950575860E+02  0.114926022229E+02  0.113716822543E+02  0.112333332505E+02
  0.110788165451E+02  0.109096194431E+02  0.107274520600E+02  0.105342404992E+02  0.103321161170E+02
  0.101234006773E+02  0.991058726040E+01  0.969631686642E+01  0.948335073610E+01  0.927453850589E+01
  0.907278241225E+01  0.888099786332E+01  0.870207079909E+01  0.853881235610E+01  0.839391147967E+01
  0.826988613852E+01  0.816903395643E+01  0.809338310560E+01  0.804464437417E+01  0.802416539868E+01
  0.803288812115E+01  0.807131059688E+01  0.813945432942E+01  0.823683832753E+01  0.836246105002E+01
  0.851479131051E+01  0.869176903084E+01  0.889081646673E+01  0.910886018464E+01  0.934236375086E+01
  0.958737082083E+01  0.983955814954E+01  0.100942979111E+02  0.103467285681E+02  0.105918333355E+02
  0.108245250340E+02  0.110397358740E+02  0.112325104741E+02  0.113981002223E+02  0.115320569466E+02
  0.116303237968E+02  0.116893212015E+02  0.117060258088E+02  0.116780403930E+02  0.116036528535E+02
  0.114818825953E+02  0.113125128267E+02  0.110961075553E+02  0.108340124011E+02  0.105283386594E+02
  0.101819304502E+02  0.979831517367E+01  0.938163792624E+01  0.893658095105E+01  0.846826965415E+01
  0.798216713913E+01  0.748395965458E+01  0.697943574539E+01  0.647436228417E+01  0.597436086681E+01
  0.548478829837E+01  0.501062499116E+01  0.455637506468E+01  0.412598158558E+01  0.372275986301E+01
  0.334935084200E+01  0.300769534586E+01  0.269902797154E+01  0.242388688665E+01  0.218213408003E+01
  0.197298109221E+01  0.179502183666E+01  0.164628390870E+01  0.152431340503E+01  0.142629572980E+01
  0.134919146728E+01  0.128985769079E+01  0.124514293535E+01  0.121196364395E+01  0.118737180021E+01
  0.116861662747E+01  0.115319882461E+01  0.113891497159E+01  0.112389029400E+01  0.110659876053E+01
  0.108587025577E+01  0.106088529028E+01  0.103115834980E+01  0.996511484871E+00  0.957040083800E+00
  0.913072951831E+00  0.865128852880E+00  0.813871588919E+00  0.760065510445E+00  0.704533106060E+00
  0.648116026168E+00  0.591640575689E+00  0.535888397570E+00  0.481572763504E+00  0.429320601075E+00
  0.379660152386E+00  0.333013966204E+00  0.289696756041E+00  0.249917549942E+00  0.213785479175E+00
  0.181318506256E+00  0.152454371063E+00  0.127063032065E+00  0.104959897683E+00  0.859191830338E-01
  0.696867935937E-01  0.559922317022E-01  0.445591408633E-01  0.351142367009E-01  0.273945077227E-01
  0.211526884267E-01  0.161611000578E-01  0.122140160989E-01  0.912874498599E-02  0.674564398336E-02
  0.492729912452E-02  0.355712771663E-02  0.253765812249E-02  0.178867902810E-02  0.124533094397E-02
  0.856125162148E-03  0.580905084159E-03  0.388852100916E-03  0.256660942008E-03  0.166958106464E-03
  0.106978204522E-03  0.674809389203E-04  0.418805850449E-04  0.255581088922E-04  0.153271208827E-04
  0.902684530711E-05  0.521773318690E-05  0.295819324830E-05  0.164399552170E-05  0.895027353500E-06
  0.477051776820E-06  0.248781189020E-06  0.126857558786E-06  0.632088728801E-07  0.307544859368E-07
  0.146016221811E-07  0.675982168724E-08  0.304911957161E-08  0.133895338105E-08  0.571922628265E-09
  0.237411060361E-09  0.956862568983E-10  0.374075144905E-10  0.141705924377E-10  0.519613924814E-11
  0.184232642641E-11  0.630901333896E-12  0.208434084946E-12
 kinetic energy-density
  0.582540642522E+02  0.587129492067E+02  0.591894857742E+02  0.596842776146E+02  0.601979486606E+02
  0.607311792856E+02  0.612846837852E+02  0.618591911492E+02  0.624555009706E+02  0.630744322998E+02
  0.637168602465E+02  0.643836986555E+02  0.650759238390E+02  0.657945538312E+02  0.665406635305E+02
  0.673153891330E+02  0.681199266885E+02  0.689555407405E+02  0.698235337858E+02  0.707253402060E+02
  0.716624133901E+02  0.726362929429E+02  0.736486166641E+02  0.747010993630E+02  0.757955454688E+02
  0.769338386210E+02  0.781179872109E+02  0.793500770841E+02  0.806323230935E+02  0.819670333936E+02
  0.833566516663E+02  0.848037377214E+02  0.863109879920E+02  0.878812360723E+02  0.895174627277E+02
  0.912228036382E+02  0.930005578891E+02  0.948541963996E+02  0.967873724316E+02  0.988039312361E+02
  0.100907921140E+03  0.103103605142E+03  0.105395472822E+03  0.107788253953E+03  0.110286931211E+03
  0.112896756701E+03  0.115623264762E+03  0.118472291958E+03  0.121449989547E+03  0.124562847752E+03
  0.127817710625E+03  0.131221798877E+03  0.134782732397E+03  0.138508551930E+03  0.142407741610E+03
  0.146489261035E+03  0.150762578144E+03  0.155237668681E+03  0.159925080756E+03  0.164835961778E+03
  0.169982076527E+03  0.175375854763E+03  0.181030433976E+03  0.186959688035E+03  0.193178281563E+03
  0.199701723639E+03  0.206546384905E+03  0.213729577862E+03  0.221269607158E+03  0.229185820283E+03
  0.237498663690E+03  0.246229762136E+03  0.255401975289E+03  0.265039466196E+03  0.275167790111E+03
  0.285813958843E+03  0.297006547462E+03  0.308775750739E+03  0.321153505068E+03  0.334173575603E+03
  0.347871664566E+03  0.362285510752E+03  0.377455024215E+03  0.393422387894E+03  0.410232203581E+03
  0.427931615101E+03  0.446570454707E+03  0.466201395605E+03  0.486880104195E+03  0.508665411873E+03
  0.531619478854E+03  0.555807987463E+03  0.581300337034E+03  0.608169801040E+03  0.636493816998E+03
  0.666354129419E+03  0.697837071433E+03  0.731033773430E+03  0.766040423408E+03  0.802958552252E+03
  0.841895273463E+03  0.882963587200E+03  0.926282678544E+03  0.971978219439E+03  0.102018269472E+04
  0.107103573261E+04  0.112468445699E+04  0.118128384472E+04  0.124099707899E+04  0.130399595598E+04
  0.137046127337E+04  0.144058321584E+04  0.151456179494E+04  0.159260726218E+04  0.167494056065E+04
  0.176179374398E+04  0.185341045492E+04  0.195004636898E+04  0.205196966774E+04  0.215946149732E+04
  0.227281645088E+04  0.239234302066E+04  0.251836407709E+04  0.265121732282E+04  0.279125574851E+04
  0.293884805725E+04  0.309437910919E+04  0.325825030138E+04  0.343087995648E+04  0.361270365825E+04
  0.380417457743E+04  0.400576373088E+04  0.421796014325E+04  0.444127114201E+04  0.467622227559E+04
  0.492335747838E+04  0.518323891819E+04  0.545644685178E+04  0.574357939981E+04  0.604525208784E+04
  0.636209740629E+04  0.669476406572E+04  0.704391627677E+04  0.741023264836E+04  0.779440508555E+04
  0.819713734033E+04  0.861914343915E+04  0.906114576487E+04  0.952387298274E+04  0.100080576042E+05
  0.105144332660E+05  0.110437317242E+05  0.115966794645E+05  0.121739939443E+05  0.127763795018E+05
  0.134045227871E+05  0.140590878620E+05  0.147407107575E+05  0.154499936704E+05  0.161874986339E+05
  0.169537407203E+05  0.177491807644E+05  0.185742175868E+05  0.194291797179E+05  0.203143166361E+05
  0.212297895244E+05  0.221756615632E+05  0.231518877816E+05  0.241583044795E+05  0.251946183203E+05
  0.262603950463E+05  0.273550479854E+05  0.284778263221E+05  0.296278032967E+05  0.308038643469E+05
  0.320046954747E+05  0.332287715245E+05  0.344743453530E+05  0.357394369041E+05  0.370218234793E+05
  0.383190305445E+05  0.396283237952E+05  0.409467024156E+05  0.422708939022E+05  0.435973505887E+05
  0.449222481631E+05  0.462414864981E+05  0.475506929424E+05  0.488452283622E+05  0.501201962323E+05
  0.513704550479E+05  0.525906341374E+05  0.537751532848E+05  0.549182462685E+05  0.560139884102E+05
  0.570563284007E+05  0.580391243605E+05  0.589561841944E+05  0.598013101804E+05  0.605683477599E+05
  0.612512381996E+05  0.618440749578E+05  0.623411634001E+05  0.627370832758E+05  0.630267535624E+05
  0.632054988979E+05  0.632691168518E+05  0.632139452074E+05  0.630369282871E+05  0.627356811721E+05
  0.623085508257E+05  0.617546727919E+05  0.610740223055E+05  0.602674584393E+05  0.593367600896E+05
  0.582846524738E+05  0.571148229713E+05  0.558319251327E+05  0.544415699757E+05  0.529503036666E+05
  0.513655711020E+05  0.496956650166E+05  0.479496607140E+05  0.461373367498E+05  0.442690823465E+05
  0.423557926960E+05  0.404087536832E+05  0.384395177311E+05  0.364597737662E+05  0.344812085588E+05
  0.325153721179E+05  0.305735347983E+05  0.286665477280E+05  0.268047040028E+05  0.249976034081E+05
  0.232540238028E+05  0.215818034937E+05  0.199877396717E+05  0.184775078317E+05  0.170556059318E+05
  0.157253251718E+05  0.144887472513E+05  0.133467661179E+05  0.122991310461E+05  0.113445074421E+05
  0.104805521816E+05  0.970400112766E+04  0.901076715028E+04  0.839604732519E+04  0.785443772912E+04
  0.738005398187E+04  0.696665529352E+04  0.660776935866E+04  0.629681571990E+04  0.602722467938E+04
  0.579254960208E+04  0.558657019754E+04  0.540338506460E+04  0.523749197140E+04  0.508385487827E+04
  0.493795700707E+04  0.479583991760E+04  0.465412853500E+04  0.451004277389E+04  0.436139651908E+04
  0.420658479775E+04  0.404456052885E+04  0.387480178493E+04  0.369727112923E+04  0.351236814260E+04
  0.332087642964E+04  0.312390627254E+04  0.292283400161E+04  0.271923905523E+04  0.251483972032E+04
  0.231142854342E+04  0.211080875060E+04  0.191473283929E+04  0.172484620795E+04  0.154263721812E+04
  0.136939782815E+04  0.120619711329E+04  0.105387485837E+04  0.913053124815E+03  0.784163080761E+03
  0.667466218218E+03  0.563044804035E+03  0.470757183206E+03  0.390195207033E+03  0.320698679594E+03
  0.261436824070E+03  0.211502413439E+03  0.169968681493E+03  0.135911470928E+03  0.108420062398E+03
  0.866088200769E+02  0.696305749970E+02  0.566896179200E+02  0.470526588531E+02  0.400570013699E+02
  0.351157431847E+02  0.317200976433E+02  0.294390735659E+02  0.279168310616E+02  0.268680994091E+02
  0.260720811580E+02  0.253652932961E+02  0.246337879684E+02  0.238051600912E+02  0.228407031843E+02
  0.217279997266E+02  0.204741677508E+02  0.190999065410E+02  0.176344154553E+02  0.161112230854E+02
  0.145648744844E+02  0.130284337188E+02  0.115317075956E+02  0.101000927995E+02  0.875394346673E+01
  0.750835986222E+01  0.637330696914E+01  0.535398209561E+01  0.445136080909E+01  0.366285850650E+01
  0.298305158573E+01  0.240440775757E+01  0.191798173671E+01  0.151404136037E+01  0.118260027242E+01
  0.913845567324E+00  0.698460304327E+00  0.527849486663E+00  0.394282302166E+00  0.290962741675E+00
  0.212037241199E+00  0.152547018434E+00  0.108339844254E+00  0.759684513543E-01  0.526039939653E-01
  0.359707304630E-01  0.242843109063E-01  0.161797765155E-01  0.106334986626E-01  0.688985348873E-02
  0.439887078023E-02  0.276585396839E-02  0.171167390988E-02  0.104195013873E-02  0.623476505334E-03
  0.366470916140E-03  0.211444524357E-03  0.119669017865E-03  0.663883591852E-04  0.360771506788E-04
  0.191918305735E-04  0.998767290380E-05  0.508157382015E-05  0.252603169054E-05  0.122602973542E-05
  0.580618366984E-06  0.268103064180E-06  0.120618191919E-06  0.528305973346E-07  0.225093318399E-07
  0.932108725010E-08  0.374799597508E-08  0.146197905157E-08  0.552654307781E-09  0.202245326415E-09
  0.715716479377E-10  0.244653161387E-10  0.806870489779E-11
 mkinetic energy-density pseudized
  0.129669699422E-06  0.138239880878E-06  0.147376486181E-06  0.157116951640E-06  0.167501187823E-06
  0.178571743079E-06  0.190373977882E-06  0.202956250687E-06  0.216370116076E-06  0.230670535997E-06
  0.245916104964E-06  0.262169290143E-06  0.279496687306E-06  0.297969293698E-06  0.317662798941E-06
  0.338657895168E-06  0.361040607645E-06  0.384902647257E-06  0.410341786279E-06  0.437462258992E-06
  0.466375188766E-06  0.497199043385E-06  0.530060120449E-06  0.565093064872E-06  0.602441420569E-06
  0.642258218618E-06  0.684706604285E-06  0.729960505500E-06  0.778205345502E-06  0.829638802598E-06
  0.884471620124E-06  0.942928469949E-06  0.100524887304E-05  0.107168818088E-05  0.114251862174E-05
  0.121803041610E-05  0.129853296582E-05  0.138435612185E-05  0.147585153577E-05  0.157339410069E-05
  0.167738348725E-05  0.178824578130E-05  0.190643522972E-05  0.203243610163E-05  0.216676467265E-05
  0.230997134030E-05  0.246264287917E-05  0.262540484516E-05  0.279892413865E-05  0.298391173705E-05
  0.318112560795E-05  0.339137381481E-05  0.361551782790E-05  0.385447605410E-05  0.410922759997E-05
  0.438081628353E-05  0.467035491116E-05  0.497902983725E-05  0.530810582513E-05  0.565893122930E-05
  0.603294352014E-05  0.643167517383E-05  0.685675995144E-05  0.730993959312E-05  0.779307095466E-05
  0.830813361574E-05  0.885723799104E-05  0.944263397739E-05  0.100667201725E-04  0.107320537028E-04
  0.114413607011E-04  0.121975474766E-04  0.130037124228E-04  0.138631587134E-04  0.147794078360E-04
  0.157562140211E-04  0.167975796250E-04  0.179077715282E-04  0.190913386191E-04  0.203531304317E-04
  0.216983170165E-04  0.231324101237E-04  0.246612857871E-04  0.262912083997E-04  0.280288563817E-04
  0.298813495441E-04  0.318562782606E-04  0.339617345687E-04  0.362063453247E-04  0.385993075511E-04
  0.411504261200E-04  0.438701539263E-04  0.467696347170E-04  0.498607487500E-04  0.531561614716E-04
  0.566693754106E-04  0.604147855014E-04  0.644077380650E-04  0.686645936863E-04  0.732027942485E-04
  0.780409343963E-04  0.831988377231E-04  0.886976379932E-04  0.945598657311E-04  0.100809540534E-03
  0.107472269487E-03  0.114575352075E-03  0.122147892040E-03  0.130220916619E-03  0.138827503671E-03
  0.148002917198E-03  0.157784751826E-03  0.168213086836E-03  0.179330650371E-03  0.191182994493E-03
  0.203818681814E-03  0.217289484457E-03  0.231650596165E-03  0.246960858423E-03  0.263283001537E-03
  0.280683901621E-03  0.299234854589E-03  0.319011868236E-03  0.340095973627E-03  0.362573557060E-03
  0.386536713967E-03  0.412083626194E-03  0.439318964214E-03  0.468354315916E-03  0.499308643725E-03
  0.532308771920E-03  0.567489906159E-03  0.604996187319E-03  0.644981281930E-03  0.687609011620E-03
  0.733054024138E-03  0.781502508709E-03  0.833152958647E-03  0.888216984340E-03  0.946920179940E-03
  0.100950304730E-02  0.107622198095E-02  0.114735031809E-02  0.122317945797E-02  0.130402005520E-02
  0.139020329183E-02  0.148208223343E-02  0.158003327475E-02  0.168445768082E-02  0.179578322978E-02
  0.191446596418E-02  0.204099205788E-02  0.217587980619E-02  0.231968174735E-02  0.247298692405E-02
  0.263642329415E-02  0.281066030048E-02  0.299641161019E-02  0.319443803481E-02  0.340555064293E-02
  0.363061407809E-02  0.387055009560E-02  0.412634133238E-02  0.439903532547E-02  0.468974879527E-02
  0.499967221113E-02  0.533007465765E-02  0.568230902167E-02  0.605781752066E-02  0.645813759532E-02
  0.688490818985E-02  0.733987644565E-02  0.782490483534E-02  0.834197876589E-02  0.889321468174E-02
  0.948086870038E-02  0.101073458153E-01  0.107752097034E-01  0.114871931760E-01  0.122462093157E-01
  0.130553633437E-01  0.139179652649E-01  0.148375433413E-01  0.158178584477E-01  0.168629193670E-01
  0.179769990846E-01  0.191646521491E-01  0.204307331648E-01  0.217804164920E-01  0.232192172303E-01
  0.247530135692E-01  0.263880705923E-01  0.281310656279E-01  0.299891152464E-01  0.319698040066E-01
  0.340812150644E-01  0.363319627594E-01  0.387312273066E-01  0.412887917230E-01  0.440150811312E-01
  0.469212045869E-01  0.500189995877E-01  0.533210794296E-01  0.568408835851E-01  0.605927312899E-01
  0.645918785314E-01  0.688545786478E-01  0.733981467520E-01  0.782410282110E-01  0.834028714205E-01
  0.889046051268E-01  0.947685205615E-01  0.101018358667E+00  0.107679402701E+00  0.114778576530E+00
  0.122344548916E+00  0.130407844142E+00  0.139000959305E+00  0.148158488638E+00  0.157917255227E+00
  0.168316450495E+00  0.179397781848E+00  0.191205628877E+00  0.203787208513E+00  0.217192749550E+00
  0.231475676948E+00  0.246692806311E+00  0.262904548964E+00  0.280175128015E+00  0.298572805784E+00
  0.318170122959E+00  0.339044149820E+00  0.361276749820E+00  0.384954855779E+00  0.410170758882E+00
  0.437022410605E+00  0.465613737599E+00  0.496054969474E+00  0.528462979272E+00  0.562961636303E+00
  0.599682170822E+00  0.638763549807E+00  0.680352862908E+00  0.724605717288E+00  0.771686639811E+00
  0.821769484624E+00  0.875037843761E+00  0.931685457889E+00  0.991916623761E+00  0.105594659428E+01
  0.112400196635E+01  0.119632105080E+01  0.127315421782E+01  0.135476421010E+01  0.144142641487E+01
  0.153342908440E+01  0.163107349324E+01  0.173467401857E+01  0.184455812821E+01  0.196106625873E+01
  0.208455156357E+01  0.221537950873E+01  0.235392729051E+01  0.250058304666E+01  0.265574482909E+01
  0.281981930226E+01  0.299322012765E+01  0.317636599027E+01  0.336967821875E+01  0.357357794587E+01
  0.378848275114E+01  0.401480272251E+01  0.425293586887E+01  0.450326281026E+01  0.476614066806E+01
  0.504189607329E+01  0.533081720775E+01  0.563314479059E+01  0.594906192190E+01  0.627868269638E+01
  0.662203950384E+01  0.697906894050E+01  0.734959626628E+01  0.773331836005E+01  0.812978514733E+01
  0.853837950562E+01  0.895829569227E+01  0.938851639022E+01  0.982778853037E+01  0.102745981272E+02
  0.107271444593E+02  0.111833140400E+02  0.116406549582E+02  0.120963523270E+02  0.125472057602E+02
  0.129896100016E+02  0.134195400653E+02  0.138325424973E+02  0.142237346411E+02  0.145878140743E+02
  0.149190806642E+02  0.152114739656E+02  0.154586289098E+02  0.156539529087E+02  0.157907275579E+02
  0.158622380416E+02  0.158619330449E+02  0.157836174028E+02  0.156216787754E+02  0.153713482282E+02
  0.150289926249E+02  0.145924340784E+02  0.140612882597E+02  0.134373090225E+02  0.127247215203E+02
  0.119305197488E+02  0.110646973399E+02  0.101403726717E+02  0.917376135570E+01  0.818394156115E+01
  0.719235141275E+01  0.622195420291E+01  0.529600819875E+01  0.443638568787E+01  0.366140336419E+01
  0.298315636841E+01  0.240440775757E+01  0.191798173671E+01  0.151404136037E+01  0.118260027242E+01
  0.913845567324E+00  0.698460304327E+00  0.527849486663E+00  0.394282302166E+00  0.290962741675E+00
  0.212037241199E+00  0.152547018434E+00  0.108339844254E+00  0.759684513543E-01  0.526039939653E-01
  0.359707304630E-01  0.242843109063E-01  0.161797765155E-01  0.106334986626E-01  0.688985348873E-02
  0.439887078023E-02  0.276585396839E-02  0.171167390988E-02  0.104195013873E-02  0.623476505334E-03
  0.366470916140E-03  0.211444524357E-03  0.119669017865E-03  0.663883591852E-04  0.360771506788E-04
  0.191918305735E-04  0.998767290380E-05  0.508157382015E-05  0.252603169054E-05  0.122602973542E-05
  0.580618366984E-06  0.268103064180E-06  0.120618191919E-06  0.528305973346E-07  0.225093318399E-07
  0.932108725010E-08  0.374799597508E-08  0.146197905157E-08  0.552654307781E-09  0.202245326415E-09
  0.715716479377E-10  0.244653161387E-10  0.806870489779E-11
 local pseudopotential core
 -0.148781605394E+03 -0.148782393281E+03 -0.148783156355E+03 -0.148783895395E+03 -0.148784611160E+03
 -0.148785304381E+03 -0.148785975770E+03 -0.148786626013E+03 -0.148787255776E+03 -0.148787865704E+03
 -0.148788456422E+03 -0.148789028535E+03 -0.148789582628E+03 -0.148790119269E+03 -0.148790639007E+03
 -0.148791142374E+03 -0.148791629887E+03 -0.148792102044E+03 -0.148792559328E+03 -0.148793002209E+03
 -0.148793431138E+03 -0.148793846556E+03 -0.148794248887E+03 -0.148794638545E+03 -0.148795015926E+03
 -0.148795381419E+03 -0.148795735397E+03 -0.148796078222E+03 -0.148796410245E+03 -0.148796731807E+03
 -0.148797043236E+03 -0.148797344851E+03 -0.148797636961E+03 -0.148797919864E+03 -0.148798193851E+03
 -0.148798459201E+03 -0.148798716186E+03 -0.148798965069E+03 -0.148799206105E+03 -0.148799439539E+03
 -0.148799665611E+03 -0.148799884553E+03 -0.148800096587E+03 -0.148800301930E+03 -0.148800500793E+03
 -0.148800693378E+03 -0.148800879882E+03 -0.148801060497E+03 -0.148801235405E+03 -0.148801404786E+03
 -0.148801568813E+03 -0.148801727652E+03 -0.148801881466E+03 -0.148802030412E+03 -0.148802174640E+03
 -0.148802314299E+03 -0.148802449530E+03 -0.148802580471E+03 -0.148802707254E+03 -0.148802830009E+03
 -0.148802948859E+03 -0.148803063926E+03 -0.148803175325E+03 -0.148803283170E+03 -0.148803387570E+03
 -0.148803488629E+03 -0.148803586449E+03 -0.148803681128E+03 -0.148803772763E+03 -0.148803861443E+03
 -0.148803947258E+03 -0.148804030294E+03 -0.148804110632E+03 -0.148804188352E+03 -0.148804263532E+03
 -0.148804336243E+03 -0.148804406559E+03 -0.148804474547E+03 -0.148804540273E+03 -0.148804603801E+03
 -0.148804665190E+03 -0.148804724500E+03 -0.148804781786E+03 -0.148804837101E+03 -0.148804890497E+03
 -0.148804942023E+03 -0.148804991724E+03 -0.148805039645E+03 -0.148805085828E+03 -0.148805130312E+03
 -0.148805173136E+03 -0.148805214333E+03 -0.148805253936E+03 -0.148805291978E+03 -0.148805328484E+03
 -0.148805363483E+03 -0.148805396997E+03 -0.148805429049E+03 -0.148805459657E+03 -0.148805488837E+03
 -0.148805516606E+03 -0.148805542973E+03 -0.148805567949E+03 -0.148805591540E+03 -0.148805613751E+03
 -0.148805634583E+03 -0.148805654033E+03 -0.148805672099E+03 -0.148805688772E+03 -0.148805704042E+03
 -0.148805717894E+03 -0.148805730313E+03 -0.148805741276E+03 -0.148805750760E+03 -0.148805758736E+03
 -0.148805765172E+03 -0.148805770030E+03 -0.148805773270E+03 -0.148805774847E+03 -0.148805774708E+03
 -0.148805772798E+03 -0.148805769056E+03 -0.148805763414E+03 -0.148805755798E+03 -0.148805746129E+03
 -0.148805734319E+03 -0.148805720276E+03 -0.148805703895E+03 -0.148805685068E+03 -0.148805663676E+03
 -0.148805639591E+03 -0.148805612674E+03 -0.148805582779E+03 -0.148805549746E+03 -0.148805513404E+03
 -0.148805473569E+03 -0.148805430047E+03 -0.148805382625E+03 -0.148805331078E+03 -0.148805275166E+03
 -0.148805214629E+03 -0.148805149192E+03 -0.148805078558E+03 -0.148805002412E+03 -0.148804920416E+03
 -0.148804832209E+03 -0.148804737406E+03 -0.148804635595E+03 -0.148804526335E+03 -0.148804409158E+03
 -0.148804283562E+03 -0.148804149013E+03 -0.148804004937E+03 -0.148803850727E+03 -0.148803685732E+03
 -0.148803509257E+03 -0.148803320562E+03 -0.148803118858E+03 -0.148802903300E+03 -0.148802672990E+03
 -0.148802426970E+03 -0.148802164215E+03 -0.148801883636E+03 -0.148801584069E+03 -0.148801264273E+03
 -0.148800922924E+03 -0.148800558613E+03 -0.148800169832E+03 -0.148799754980E+03 -0.148799312343E+03
 -0.148798840098E+03 -0.148798336299E+03 -0.148797798873E+03 -0.148797225607E+03 -0.148796614143E+03
 -0.148795961968E+03 -0.148795266400E+03 -0.148794524582E+03 -0.148793733467E+03 -0.148792889805E+03
 -0.148791990135E+03 -0.148791030762E+03 -0.148790007751E+03 -0.148788916904E+03 -0.148787753747E+03
 -0.148786513511E+03 -0.148785191109E+03 -0.148783781121E+03 -0.148782277767E+03 -0.148780674886E+03
 -0.148778965910E+03 -0.148777143836E+03 -0.148775201200E+03 -0.148773130045E+03 -0.148770921888E+03
 -0.148768567687E+03 -0.148766057801E+03 -0.148763381956E+03 -0.148760529197E+03 -0.148757487848E+03
 -0.148754245462E+03 -0.148750788772E+03 -0.148747103634E+03 -0.148743174974E+03 -0.148738986721E+03
 -0.148734521749E+03 -0.148729761798E+03 -0.148724687411E+03 -0.148719277844E+03 -0.148713510989E+03
 -0.148707363284E+03 -0.148700809613E+03 -0.148693823210E+03 -0.148686375546E+03 -0.148678436217E+03
 -0.148669972821E+03 -0.148660950823E+03 -0.148651333425E+03 -0.148641081407E+03 -0.148630152979E+03
 -0.148618503607E+03 -0.148606085836E+03 -0.148592849104E+03 -0.148578739534E+03 -0.148563699723E+03
 -0.148547668513E+03 -0.148530580749E+03 -0.148512367016E+03 -0.148492953370E+03 -0.148472261045E+03
 -0.148450206141E+03 -0.148426699296E+03 -0.148401645336E+03 -0.148374942904E+03 -0.148346484067E+03
 -0.148316153894E+03 -0.148283830017E+03 -0.148249382160E+03 -0.148212671637E+03 -0.148173550828E+03
 -0.148131862617E+03 -0.148087439802E+03 -0.148040104468E+03 -0.147989667323E+03 -0.147935927001E+03
 -0.147878669320E+03 -0.147817666506E+03 -0.147752676366E+03 -0.147683441425E+03 -0.147609688011E+03
 -0.147531125299E+03 -0.147447444301E+03 -0.147358316806E+03 -0.147263394279E+03 -0.147162306693E+03
 -0.147054661324E+03 -0.146940041481E+03 -0.146818005197E+03 -0.146688083854E+03 -0.146549780769E+03
 -0.146402569732E+03 -0.146245893486E+03 -0.146079162185E+03 -0.145901751797E+03 -0.145713002485E+03
 -0.145512216967E+03 -0.145298658855E+03 -0.145071550993E+03 -0.144830073811E+03 -0.144573363692E+03
 -0.144300511401E+03 -0.144010560561E+03 -0.143702506236E+03 -0.143375293625E+03 -0.143027816913E+03
 -0.142658918319E+03 -0.142267387381E+03 -0.141851960523E+03 -0.141411320981E+03 -0.140944099134E+03
 -0.140448873326E+03 -0.139924171257E+03 -0.139368472042E+03 -0.138780209037E+03 -0.138157773557E+03
 -0.137499519613E+03 -0.136803769813E+03 -0.136068822590E+03 -0.135292960943E+03 -0.134474462880E+03
 -0.133611613782E+03 -0.132702720956E+03 -0.131746130609E+03 -0.130740247588E+03 -0.129683558188E+03
 -0.128574656439E+03 -0.127412274282E+03 -0.126195316138E+03 -0.124922898435E+03 -0.123594394735E+03
 -0.122209487233E+03 -0.120768225489E+03 -0.119271093422E+03 -0.117719085703E+03 -0.116113794859E+03
 -0.114457510406E+03 -0.112753331282E+03 -0.111005292227E+03 -0.109218503181E+03 -0.107399296712E+03
 -0.105555369034E+03 -0.103695879301E+03 -0.101831428350E+03 -0.999737554970E+02 -0.981348574750E+02
 -0.963250757377E+02 -0.945496750993E+02 -0.928039357595E+02 -0.910682819040E+02 -0.893072330431E+02
 -0.874768527495E+02 -0.855417420532E+02 -0.834951185190E+02 -0.813703907232E+02 -0.792295379260E+02
 -0.771069085676E+02 -0.749933392063E+02 -0.728378092166E+02 -0.706500736730E+02 -0.684508878014E+02
 -0.662777490483E+02 -0.641842891917E+02 -0.621642699692E+02 -0.602052821222E+02 -0.583080201324E+02
 -0.564708429110E+02 -0.546917811793E+02 -0.529689343119E+02 -0.513004771599E+02 -0.496846570681E+02
 -0.481197895329E+02 -0.466042467195E+02 -0.451364631461E+02 -0.437149261651E+02 -0.423381740007E+02
 -0.410047801018E+02 -0.397133971018E+02 -0.384626795933E+02 -0.372513546256E+02 -0.360781792246E+02
 -0.349419567984E+02 -0.338415117566E+02 -0.327757275353E+02 -0.317435074607E+02 -0.307437964128E+02
 -0.297755694861E+02 -0.288378353763E+02 -0.279296337857E+02 -0.270500345818E+02 -0.261981369465E+02
 -0.253730684449E+02 -0.245739841174E+02 -0.238000656275E+02 -0.230505204142E+02 -0.223245808860E+02
 -0.216215036345E+02 -0.209405686529E+02 -0.202810786123E+02 -0.196423581634E+02 -0.190237531987E+02
 -0.184246302225E+02 -0.178443756836E+02 -0.172823953523E+02
 pspotential valence only
 -0.126459729473E+03 -0.126460517361E+03 -0.126461280435E+03 -0.126462019477E+03 -0.126462735242E+03
 -0.126463428465E+03 -0.126464099854E+03 -0.126464750098E+03 -0.126465379862E+03 -0.126465989792E+03
 -0.126466580511E+03 -0.126467152625E+03 -0.126467706720E+03 -0.126468243362E+03 -0.126468763102E+03
 -0.126469266471E+03 -0.126469753986E+03 -0.126470226145E+03 -0.126470683432E+03 -0.126471126314E+03
 -0.126471555246E+03 -0.126471970667E+03 -0.126472373001E+03 -0.126472762661E+03 -0.126473140046E+03
 -0.126473505542E+03 -0.126473859523E+03 -0.126474202352E+03 -0.126474534380E+03 -0.126474855946E+03
 -0.126475167380E+03 -0.126475469000E+03 -0.126475761115E+03 -0.126476044024E+03 -0.126476318017E+03
 -0.126476583374E+03 -0.126476840365E+03 -0.126477089256E+03 -0.126477330299E+03 -0.126477563742E+03
 -0.126477789824E+03 -0.126478008774E+03 -0.126478220818E+03 -0.126478426173E+03 -0.126478625047E+03
 -0.126478817645E+03 -0.126479004162E+03 -0.126479184790E+03 -0.126479359714E+03 -0.126479529111E+03
 -0.126479693154E+03 -0.126479852012E+03 -0.126480005845E+03 -0.126480154811E+03 -0.126480299062E+03
 -0.126480438744E+03 -0.126480574000E+03 -0.126480704967E+03 -0.126480831778E+03 -0.126480954563E+03
 -0.126481073446E+03 -0.126481188547E+03 -0.126481299983E+03 -0.126481407867E+03 -0.126481512308E+03
 -0.126481613411E+03 -0.126481711278E+03 -0.126481806008E+03 -0.126481897696E+03 -0.126481986434E+03
 -0.126482072310E+03 -0.126482155411E+03 -0.126482235818E+03 -0.126482313613E+03 -0.126482388871E+03
 -0.126482461667E+03 -0.126482532072E+03 -0.126482600155E+03 -0.126482665983E+03 -0.126482729619E+03
 -0.126482791124E+03 -0.126482850557E+03 -0.126482907975E+03 -0.126482963430E+03 -0.126483016976E+03
 -0.126483068661E+03 -0.126483118532E+03 -0.126483166634E+03 -0.126483213010E+03 -0.126483257701E+03
 -0.126483300743E+03 -0.126483342174E+03 -0.126483382027E+03 -0.126483420334E+03 -0.126483457125E+03
 -0.126483492425E+03 -0.126483526262E+03 -0.126483558657E+03 -0.126483589631E+03 -0.126483619202E+03
 -0.126483647386E+03 -0.126483674197E+03 -0.126483699646E+03 -0.126483723742E+03 -0.126483746490E+03
 -0.126483767895E+03 -0.126483787957E+03 -0.126483806673E+03 -0.126483824041E+03 -0.126483840051E+03
 -0.126483854693E+03 -0.126483867953E+03 -0.126483879813E+03 -0.126483890253E+03 -0.126483899249E+03
 -0.126483906771E+03 -0.126483912788E+03 -0.126483917264E+03 -0.126483920157E+03 -0.126483921422E+03
 -0.126483921009E+03 -0.126483918863E+03 -0.126483914922E+03 -0.126483909120E+03 -0.126483901384E+03
 -0.126483891636E+03 -0.126483879789E+03 -0.126483865752E+03 -0.126483849422E+03 -0.126483830693E+03
 -0.126483809446E+03 -0.126483785556E+03 -0.126483758887E+03 -0.126483729293E+03 -0.126483696617E+03
 -0.126483660692E+03 -0.126483621337E+03 -0.126483578358E+03 -0.126483531548E+03 -0.126483480685E+03
 -0.126483425532E+03 -0.126483365833E+03 -0.126483301318E+03 -0.126483231695E+03 -0.126483156653E+03
 -0.126483075860E+03 -0.126482988960E+03 -0.126482895574E+03 -0.126482795298E+03 -0.126482687697E+03
 -0.126482572311E+03 -0.126482448645E+03 -0.126482316173E+03 -0.126482174333E+03 -0.126482022526E+03
 -0.126481860111E+03 -0.126481686405E+03 -0.126481500679E+03 -0.126481302157E+03 -0.126481090009E+03
 -0.126480863350E+03 -0.126480621237E+03 -0.126480362664E+03 -0.126480086556E+03 -0.126479791771E+03
 -0.126479477086E+03 -0.126479141199E+03 -0.126478782724E+03 -0.126478400178E+03 -0.126477991984E+03
 -0.126477556458E+03 -0.126477091805E+03 -0.126476596111E+03 -0.126476067336E+03 -0.126475503304E+03
 -0.126474901695E+03 -0.126474260035E+03 -0.126473575689E+03 -0.126472845843E+03 -0.126472067500E+03
 -0.126471237465E+03 -0.126470352330E+03 -0.126469408463E+03 -0.126468401992E+03 -0.126467328786E+03
 -0.126466184446E+03 -0.126464964278E+03 -0.126463663281E+03 -0.126462276120E+03 -0.126460797112E+03
 -0.126459220195E+03 -0.126457538908E+03 -0.126455746363E+03 -0.126453835218E+03 -0.126451797647E+03
 -0.126449625304E+03 -0.126447309295E+03 -0.126444840140E+03 -0.126442207731E+03 -0.126439401293E+03
 -0.126436409343E+03 -0.126433219638E+03 -0.126429819129E+03 -0.126426193907E+03 -0.126422329145E+03
 -0.126418209040E+03 -0.126413816747E+03 -0.126409134313E+03 -0.126404142599E+03 -0.126398821210E+03
 -0.126393148406E+03 -0.126387101017E+03 -0.126380654349E+03 -0.126373782085E+03 -0.126366456175E+03
 -0.126358646728E+03 -0.126350321890E+03 -0.126341447713E+03 -0.126331988022E+03 -0.126321904268E+03
 -0.126311155375E+03 -0.126299697575E+03 -0.126287484233E+03 -0.126274465660E+03 -0.126260588918E+03
 -0.126245797608E+03 -0.126230031644E+03 -0.126213227021E+03 -0.126195315559E+03 -0.126176224633E+03
 -0.126155876893E+03 -0.126134189955E+03 -0.126111076086E+03 -0.126086441860E+03 -0.126060187793E+03
 -0.126032207966E+03 -0.126002389611E+03 -0.125970612685E+03 -0.125936749411E+03 -0.125900663791E+03
 -0.125862211100E+03 -0.125821237338E+03 -0.125777578659E+03 -0.125731060768E+03 -0.125681498276E+03
 -0.125628694032E+03 -0.125572438403E+03 -0.125512508533E+03 -0.125448667546E+03 -0.125380663723E+03
 -0.125308229625E+03 -0.125231081179E+03 -0.125148916721E+03 -0.125061415994E+03 -0.124968239096E+03
 -0.124869025390E+03 -0.124763392366E+03 -0.124650934459E+03 -0.124531221820E+03 -0.124403799056E+03
 -0.124268183920E+03 -0.124123865973E+03 -0.123970305208E+03 -0.123806930657E+03 -0.123633138969E+03
 -0.123448292984E+03 -0.123251720301E+03 -0.123042711857E+03 -0.122820520535E+03 -0.122584359801E+03
 -0.122333402413E+03 -0.122066779205E+03 -0.121783577978E+03 -0.121482842535E+03 -0.121163571881E+03
 -0.120824719640E+03 -0.120465193729E+03 -0.120083856336E+03 -0.119679524275E+03 -0.119250969761E+03
 -0.118796921707E+03 -0.118316067602E+03 -0.117807056083E+03 -0.117268500293E+03 -0.116698982150E+03
 -0.116097057658E+03 -0.115461263395E+03 -0.114790124358E+03 -0.114082163318E+03 -0.113335911908E+03
 -0.112549923638E+03 -0.111722789101E+03 -0.110853153614E+03 -0.109939737618E+03 -0.108981360143E+03
 -0.107976965736E+03 -0.106925655261E+03 -0.105826721064E+03 -0.104679687044E+03 -0.103484354290E+03
 -0.102240853002E+03 -0.100949701580E+03 -0.996118738545E+02 -0.982288756115E+02 -0.968028316583E+02
 -0.953365847622E+02 -0.938338076636E+02 -0.922991288051E+02 -0.907382707908E+02 -0.891581965460E+02
 -0.875672486966E+02 -0.859752467842E+02 -0.843934634473E+02 -0.828343180922E+02 -0.813104920769E+02
 -0.798330115492E+02 -0.784078208281E+02 -0.770308682832E+02 -0.756832278061E+02 -0.743300419332E+02
 -0.729279611747E+02 -0.714421266983E+02 -0.698662372800E+02 -0.682341101313E+02 -0.666080452916E+02
 -0.650226071190E+02 -0.634687244111E+02 -0.618953244151E+02 -0.603119431097E+02 -0.587389251456E+02
 -0.571958487251E+02 -0.556993031490E+02 -0.542508375061E+02 -0.528445401693E+02 -0.514796841890E+02
 -0.501407307793E+02 -0.488004568811E+02 -0.474326002053E+02 -0.460301924446E+02 -0.446119597751E+02
 -0.432082462709E+02 -0.418426313298E+02 -0.405257691328E+02 -0.392594460557E+02 -0.380420340963E+02
 -0.368717633464E+02 -0.357476695182E+02 -0.346695460916E+02 -0.336371454211E+02 -0.326495186137E+02
 -0.317044009746E+02 -0.307981023501E+02 -0.299259452514E+02 -0.290829698421E+02 -0.282645419903E+02
 -0.274669022280E+02 -0.266872841734E+02 -0.259239212935E+02 -0.251758995078E+02 -0.244429817204E+02
 -0.237254341283E+02 -0.230238717582E+02 -0.223391237779E+02 -0.216721131626E+02 -0.210237453730E+02
 -0.203948045013E+02 -0.197858607454E+02 -0.191971977102E+02 -0.186287696477E+02 -0.180801959352E+02
 -0.175507935415E+02 -0.170396404477E+02 -0.165456571937E+02
 core charge-density (pseudized)
  0.313826947681E-08  0.334568523388E-08  0.356680959578E-08  0.380254859709E-08  0.405386815437E-08
  0.432179802392E-08  0.460743602111E-08  0.491195251855E-08  0.523659524159E-08  0.558269438073E-08
  0.595166804194E-08  0.634502805724E-08  0.676438617922E-08  0.721146068508E-08  0.768808341706E-08
  0.819620728826E-08  0.873791428446E-08  0.931542399490E-08  0.993110270675E-08  0.105874731008E-07
  0.112872245878E-07  0.120332243281E-07  0.128285289797E-07  0.136763972222E-07  0.145803031093E-07
  0.155439503031E-07  0.165712872497E-07  0.176665233573E-07  0.188341462442E-07  0.200789401258E-07
  0.214060054179E-07  0.228207796351E-07  0.243290596701E-07  0.259370255461E-07  0.276512657389E-07
  0.294788041723E-07  0.314271289980E-07  0.335042232776E-07  0.357185976921E-07  0.380793254138E-07
  0.405960792825E-07  0.432791714390E-07  0.461395955780E-07  0.491890719939E-07  0.524400956027E-07
  0.559059871395E-07  0.596009477382E-07  0.635401171194E-07  0.677396356237E-07  0.722167103448E-07
  0.769896856344E-07  0.820781182653E-07  0.875028575638E-07  0.932861308374E-07  0.994516344486E-07
  0.106024630908E-06  0.113032052386E-06  0.120502611062E-06  0.128466916772E-06  0.136957602425E-06
  0.146009457719E-06  0.155659571682E-06  0.165947484641E-06  0.176915350239E-06  0.188608108147E-06
  0.201073668204E-06  0.214363106722E-06  0.228530875763E-06  0.243635026250E-06  0.259737445826E-06
  0.276904112429E-06  0.295205364626E-06  0.314716189824E-06  0.335516531513E-06  0.357691616829E-06
  0.381332305760E-06  0.406535463433E-06  0.433404357004E-06  0.462049078786E-06  0.492586997329E-06
  0.525143238329E-06  0.559851197310E-06  0.596853086188E-06  0.636300515971E-06  0.678355117955E-06
  0.723189205989E-06  0.770986482497E-06  0.821942791175E-06  0.876266919423E-06  0.934181453819E-06
  0.995923692126E-06  0.106174661558E-05  0.113191992542E-05  0.120673114796E-05  0.128648681266E-05
  0.137151370805E-05  0.146216022071E-05  0.155879776269E-05  0.166182229328E-05  0.177165594137E-05
  0.188874873503E-05  0.201358044535E-05  0.214666255223E-05  0.228854033998E-05  0.243979513151E-05
  0.260104667008E-05  0.277295565854E-05  0.295622646635E-05  0.315161001547E-05  0.335990685702E-05
  0.358197045123E-05  0.381871066416E-05  0.407109749552E-05  0.434016505282E-05  0.462701578814E-05
  0.493282501497E-05  0.525884572341E-05  0.560641371365E-05  0.597695306873E-05  0.637198198883E-05
  0.679311901121E-05  0.724208964111E-05  0.772073342083E-05  0.823101146593E-05  0.877501449941E-05
  0.935497141680E-05  0.997325841712E-05  0.106324087372E-04  0.113351230294E-04  0.120842804245E-04
  0.128829503260E-04  0.137344049837E-04  0.146421328977E-04  0.156098531077E-04  0.166415304276E-04
  0.177413916849E-04  0.189139430338E-04  0.201639884124E-04  0.214966492181E-04  0.229173852833E-04
  0.244320172367E-04  0.260467503410E-04  0.277681999060E-04  0.296034183788E-04  0.315599242243E-04
  0.336457327122E-04  0.358693887371E-04  0.382400018060E-04  0.407672833356E-04  0.434615864123E-04
  0.463339481770E-04  0.493961350074E-04  0.526606906836E-04  0.561409877318E-04  0.598512821570E-04
  0.638067717873E-04  0.680236584678E-04  0.725192143580E-04  0.773118526027E-04  0.824212026639E-04
  0.878681906215E-04  0.936751247682E-04  0.998657868492E-04  0.106465529315E-03  0.113501378984E-03
  0.121002147539E-03  0.128998549299E-03  0.137523326752E-03  0.146611384355E-03  0.156299931140E-03
  0.166628632711E-03  0.177639773240E-03  0.189378428123E-03  0.201892647985E-03  0.215233654792E-03
  0.229456050841E-03  0.244618041488E-03  0.260781672499E-03  0.278013082980E-03  0.296382774903E-03
  0.315965900314E-03  0.336842567353E-03  0.359098166334E-03  0.382823717168E-03  0.408116239516E-03
  0.435079147149E-03  0.463822668071E-03  0.494464292074E-03  0.527129247485E-03  0.561951008994E-03
  0.599071838534E-03  0.638643361364E-03  0.680827179573E-03  0.725795525410E-03  0.773731956963E-03
  0.824832098883E-03  0.879304430994E-03  0.937371127806E-03  0.999268952143E-03  0.106525020626E-02
  0.113558374406E-02  0.121055604814E-02  0.129047237579E-02  0.137565797809E-02  0.146645939661E-02
  0.156324584245E-02  0.166641066260E-02  0.177637289888E-02  0.189357894497E-02  0.201850430732E-02
  0.215165547614E-02  0.229357191272E-02  0.244482816000E-02  0.260603608317E-02  0.277784724789E-02
  0.296095544353E-02  0.315609935964E-02  0.336406542369E-02  0.358569080886E-02  0.382186662049E-02
  0.407354127059E-02  0.434172404948E-02  0.462748890430E-02  0.493197843411E-02  0.525640811128E-02
  0.560207073923E-02  0.597034115628E-02  0.636268119539E-02  0.678064490936E-02  0.722588407058E-02
  0.770015395411E-02  0.820531941203E-02  0.874336124610E-02  0.931638288490E-02  0.992661736974E-02
  0.105764346524E-01  0.112683492054E-01  0.120050279426E-01  0.127892984456E-01  0.136241574877E-01
  0.145127798419E-01  0.154585273558E-01  0.164649582692E-01  0.175358367451E-01  0.186751425739E-01
  0.198870810055E-01  0.211760926495E-01  0.225468633743E-01  0.240043341214E-01  0.255537105343E-01
  0.272004722852E-01  0.289503819608E-01  0.308094933453E-01  0.327841589148E-01  0.348810363228E-01
  0.371070936295E-01  0.394696129847E-01  0.419761924358E-01  0.446347454840E-01  0.474534979620E-01
  0.504409817459E-01  0.536060247542E-01  0.569577366158E-01  0.605054893107E-01  0.642588920086E-01
  0.682277592357E-01  0.724220714078E-01  0.768519266607E-01  0.815274828021E-01  0.864588880927E-01
  0.916561994471E-01  0.971292865201E-01  0.102887720028E+00  0.108940642530E+00  0.115296619791E+00
  0.121963470733E+00  0.128948073934E+00  0.136256148525E+00  0.143892007391E+00  0.151858280542E+00
  0.160155606670E+00  0.168782291059E+00  0.177733928294E+00  0.187002988640E+00  0.196578367491E+00
  0.206444898069E+00  0.216582828502E+00  0.226967265642E+00  0.237567589558E+00  0.248346844508E+00
  0.259261114530E+00  0.270258894554E+00  0.281280471227E+00  0.292257331487E+00  0.303111621325E+00
  0.313755682229E+00  0.324091698403E+00  0.334011494032E+00  0.343396526447E+00  0.352118127943E+00
  0.360038055858E+00  0.367009417061E+00  0.372878038571E+00  0.377484360076E+00  0.380665925588E+00
  0.382260549269E+00  0.382110223161E+00  0.380065820294E+00  0.375992623535E+00  0.369776676021E+00
  0.361331900693E+00  0.350607871429E+00  0.337598034007E+00  0.322348069308E+00  0.304963962262E+00
  0.285619188061E+00  0.264560254139E+00  0.242109647909E+00  0.218665046002E+00  0.194693456990E+00
  0.170718819815E+00  0.147301497708E+00  0.125008136138E+00  0.104370549362E+00  0.858327306786E-01
  0.696858235846E-01  0.559922317022E-01  0.445591408633E-01  0.351142367009E-01  0.273945077227E-01
  0.211526884267E-01  0.161611000578E-01  0.122140160989E-01  0.912874498599E-02  0.674564398336E-02
  0.492729912452E-02  0.355712771663E-02  0.253765812249E-02  0.178867902810E-02  0.124533094397E-02
  0.856125162148E-03  0.580905084159E-03  0.388852100916E-03  0.256660942008E-03  0.166958106464E-03
  0.106978204522E-03  0.674809389203E-04  0.418805850449E-04  0.255581088922E-04  0.153271208827E-04
  0.902684530711E-05  0.521773318690E-05  0.295819324830E-05  0.164399552170E-05  0.895027353500E-06
  0.477051776820E-06  0.248781189020E-06  0.126857558786E-06  0.632088728801E-07  0.307544859368E-07
  0.146016221811E-07  0.675982168724E-08  0.304911957161E-08  0.133895338105E-08  0.571922628265E-09
  0.237411060361E-09  0.956862568983E-10  0.374075144905E-10  0.141705924377E-10  0.519613924814E-11
  0.184232642641E-11  0.630901333896E-12  0.208434084946E-12
 pseudo wavefunction
  0.347464701429E-08  0.370429476988E-08  0.394912049645E-08  0.421012734250E-08  0.448838475702E-08
  0.478503287145E-08  0.510128717125E-08  0.543844347623E-08  0.579788325004E-08  0.618107926057E-08
  0.658960161446E-08  0.702512419048E-08  0.748943149805E-08  0.798442598910E-08  0.851213585316E-08
  0.907472332768E-08  0.967449355754E-08  0.103139040402E-07  0.109955746950E-07  0.117222985980E-07
  0.124970534264E-07  0.133230136592E-07  0.142035635842E-07  0.151423111652E-07  0.161431028247E-07
  0.172100392045E-07  0.183474919676E-07  0.195601217109E-07  0.208528970611E-07  0.222311150333E-07
  0.237004227353E-07  0.252668405053E-07  0.269367865804E-07  0.287171033944E-07  0.306150856135E-07
  0.326385100263E-07  0.347956674076E-07  0.370953964896E-07  0.395471201771E-07  0.421608841575E-07
  0.449473980614E-07  0.479180793447E-07  0.510851000701E-07  0.544614367808E-07  0.580609236710E-07
  0.618983092695E-07  0.659893168706E-07  0.703507089586E-07  0.750003558903E-07  0.799573091167E-07
  0.852418792448E-07  0.908757192577E-07  0.968819132357E-07  0.103285070940E-06  0.110111428651E-06
  0.117388956666E-06  0.125147473905E-06  0.133418770091E-06  0.142236736006E-06  0.151637502353E-06
  0.161659587798E-06  0.172344056799E-06  0.183734687857E-06  0.195878152899E-06  0.208824208509E-06
  0.222625899801E-06  0.237339777762E-06  0.253026130970E-06  0.269749232613E-06  0.287577603844E-06
  0.306584294537E-06  0.326847182606E-06  0.348449293091E-06  0.371479138351E-06  0.396031080732E-06
  0.422205719201E-06  0.450110301543E-06  0.479859163792E-06  0.511574198714E-06  0.545385355239E-06
  0.581431170919E-06  0.619859339562E-06  0.660827316390E-06  0.704502963192E-06  0.751065236114E-06
  0.800704918908E-06  0.853625404642E-06  0.910043529072E-06  0.970190459101E-06  0.103431263995E-05
  0.110267280492E-05  0.117555105191E-05  0.125324599110E-05  0.133607596841E-05  0.142438036989E-05
  0.151852101232E-05  0.161888362566E-05  0.172587943354E-05  0.183994683815E-05  0.196155321653E-05
  0.209119683553E-05  0.222940889339E-05  0.237675569623E-05  0.253384097830E-05  0.270130837574E-05
  0.287984406365E-05  0.307017956761E-05  0.327309476087E-05  0.348942105970E-05  0.372004482992E-05
  0.396591101853E-05  0.422802702537E-05  0.450746683060E-05  0.480537539508E-05  0.512297335142E-05
  0.546156200514E-05  0.582252866628E-05  0.620735233344E-05  0.661760975338E-05  0.705498188108E-05
  0.752126076679E-05  0.801835689811E-05  0.854830702735E-05  0.911328251611E-05  0.971559823130E-05
  0.103577220290E-04  0.110422848653E-04  0.117720915747E-04  0.125501323613E-04  0.133795950493E-04
  0.142638781425E-04  0.152066047473E-04  0.162116374157E-04  0.172830939683E-04  0.184253643640E-04
  0.196431286831E-04  0.209413763001E-04  0.223254263212E-04  0.238009493746E-04  0.253739908383E-04
  0.270509956036E-04  0.288388344747E-04  0.307448323117E-04  0.327767980334E-04  0.349430566017E-04
  0.372524831191E-04  0.397145391783E-04  0.423393116131E-04  0.451375538084E-04  0.481207297391E-04
  0.513010609172E-04  0.546915764397E-04  0.583061663411E-04  0.621596384699E-04  0.662677791195E-04
  0.706474176636E-04  0.753164954582E-04  0.802941392927E-04  0.856007396899E-04  0.912580343740E-04
  0.972891972483E-04  0.103718933244E-03  0.110573579431E-03  0.117881212795E-03  0.125671765131E-03
  0.133977145513E-03  0.142831370844E-03  0.152270705011E-03  0.162333807223E-03  0.173061890127E-03
  0.184498888343E-03  0.196691638112E-03  0.209690068783E-03  0.223547406913E-03  0.238320393812E-03
  0.254069517417E-03  0.270859259434E-03  0.288758358742E-03  0.307840092139E-03  0.328182573550E-03
  0.349869072922E-03  0.372988356078E-03  0.397635046911E-03  0.423910013374E-03  0.451920778817E-03
  0.481781960332E-03  0.513615735855E-03  0.547552341901E-03  0.583730603938E-03  0.622298501490E-03
  0.663413770258E-03  0.707244543628E-03  0.753970036136E-03  0.803781271593E-03  0.856881858747E-03
  0.913488817556E-03  0.973833459323E-03  0.103816232414E-02  0.110673817934E-02  0.117984108280E-02
  0.125776951534E-02  0.134084158645E-02  0.142939631817E-02  0.152379501200E-02  0.162442270393E-02
  0.173168971349E-02  0.184603329229E-02  0.196791937856E-02  0.209784446418E-02  0.223633758112E-02
  0.238396241471E-02  0.254131955149E-02  0.270904886985E-02  0.288783208206E-02  0.307839543692E-02
  0.328151259248E-02  0.349800766906E-02  0.372875849303E-02  0.397470004271E-02  0.423682810770E-02
  0.451620317426E-02  0.481395454915E-02  0.513128473541E-02  0.546947407390E-02  0.582988566501E-02
  0.621397058538E-02  0.662327341512E-02  0.705943809138E-02  0.752421410462E-02  0.801946305419E-02
  0.854716558028E-02  0.910942868944E-02  0.970849349096E-02  0.103467433614E-01  0.110267125547E-01
  0.117510952736E-01  0.125227552209E-01  0.133447356427E-01  0.142202698809E-01  0.151527924461E-01
  0.161459506221E-01  0.172036166110E-01  0.183299002236E-01  0.195291621185E-01  0.208060275866E-01
  0.221654008743E-01  0.236124800311E-01  0.251527722629E-01  0.267921097599E-01  0.285366659616E-01
  0.303929722077E-01  0.323679347126E-01  0.344688517825E-01  0.367034311810E-01  0.390798075235E-01
  0.416065595626E-01  0.442927271958E-01  0.471478280003E-01  0.501818730617E-01  0.534053818291E-01
  0.568293956795E-01  0.604654898309E-01  0.643257831845E-01  0.684229456145E-01  0.727702021561E-01
  0.773813334649E-01  0.822706718342E-01  0.874530919632E-01  0.929439955658E-01  0.987592887940E-01
  0.104915351328E+00  0.111428995848E+00  0.118317416460E+00  0.125598124494E+00  0.133288869917E+00
  0.141407546451E+00  0.149972078290E+00  0.159000286126E+00  0.168509730018E+00  0.178517526453E+00
  0.189040136772E+00  0.200093123980E+00  0.211690874839E+00  0.223846284023E+00  0.236570397113E+00
  0.249872009194E+00  0.263757215969E+00  0.278228914513E+00  0.293286251161E+00  0.308924014589E+00
  0.325131972905E+00  0.341894154573E+00  0.359188074356E+00  0.376983907135E+00  0.395243614612E+00
  0.413920032486E+00  0.432955928881E+00  0.452283048581E+00  0.471821162091E+00  0.491477143723E+00
  0.511144108879E+00  0.530700647384E+00  0.550010197185E+00  0.568920610791E+00  0.587263975385E+00
  0.604856756267E+00  0.621500341901E+00  0.636982076645E+00  0.651076873669E+00  0.663549504560E+00
  0.674157662509E+00  0.682655891225E+00  0.688800460138E+00  0.692355245795E+00  0.693098647348E+00
  0.690831518051E+00  0.685386032132E+00  0.676635324748E+00  0.664503639983E+00  0.648976597034E+00
  0.630111038209E+00  0.608043757212E+00  0.582998228531E+00  0.555288279503E+00  0.525317482420E+00
  0.493572918667E+00  0.460611912587E+00  0.427040390459E+00  0.393481739850E+00  0.360535483297E+00
  0.328725798437E+00  0.298440970473E+00  0.269869322587E+00  0.243043305112E+00  0.217980817912E+00
  0.194688252577E+00  0.173156925544E+00  0.153360133682E+00  0.135251353390E+00  0.118765865600E+00
  0.103825788376E+00  0.903459537183E-01  0.782381886258E-01  0.674135342506E-01  0.577832098567E-01
  0.492591432299E-01  0.417544695242E-01  0.351840867043E-01  0.294652292343E-01  0.245179926180E-01
  0.202657672177E-01  0.166355725093E-01  0.135583150477E-01  0.109690040697E-01  0.880694801822E-02
  0.701593482549E-02  0.554438064295E-02  0.434542455970E-02  0.337695021025E-02  0.260152405818E-02
  0.198625016266E-02  0.150254947888E-02  0.112587721371E-02  0.835394522267E-03  0.613611417427E-03
  0.446016795917E-03  0.320709524349E-03  0.228042026699E-03  0.160285114325E-03  0.111320153638E-03
  0.763622545734E-04  0.517161012501E-04  0.345643915569E-04
 ae wavefunction
 -0.105761351531E-05 -0.112136177799E-05 -0.118865718120E-05 -0.125971488135E-05 -0.133476237287E-05
 -0.141404025729E-05 -0.149780305551E-05 -0.158632006916E-05 -0.167987629607E-05 -0.177877339978E-05
 -0.188333074042E-05 -0.199388646555E-05 -0.211079867340E-05 -0.223444664236E-05 -0.236523214114E-05
 -0.250358081634E-05 -0.264994367082E-05 -0.280479862912E-05 -0.296865220461E-05 -0.314204126980E-05
 -0.332553493502E-05 -0.351973655084E-05 -0.372528582531E-05 -0.394286109194E-05 -0.417318169895E-05
 -0.441701056899E-05 -0.467515690449E-05 -0.494847907720E-05 -0.523788769064E-05 -0.554434884087E-05
 -0.586888758498E-05 -0.621259162593E-05 -0.657661523546E-05 -0.696218342390E-05 -0.737059637625E-05
 -0.780323417077E-05 -0.826156179864E-05 -0.874713450342E-05 -0.926160346188E-05 -0.980672182765E-05
 -0.103843511613E-04 -0.109964682721E-04 -0.116451724970E-04 -0.123326934471E-04 -0.130613992487E-04
 -0.138338053150E-04 -0.146525836777E-04 -0.155205729196E-04 -0.164407887428E-04 -0.174164352159E-04
 -0.184509167438E-04 -0.195478508042E-04 -0.207110815048E-04 -0.219446940070E-04 -0.232530298832E-04
 -0.246407034412E-04 -0.261126191374E-04 -0.276739900527E-04 -0.293303575984E-04 -0.310876124689E-04
 -0.329520169409E-04 -0.349302286069E-04 -0.370293256234E-04 -0.392568335777E-04 -0.416207540945E-04
 -0.441295952467E-04 -0.467924039404E-04 -0.496188003508E-04 -0.526190145694E-04 -0.558039256066E-04
 -0.591851028640E-04 -0.627748502639E-04 -0.665862532086E-04 -0.706332285065E-04 -0.749305775050E-04
 -0.794940425863E-04 -0.843403672739E-04 -0.894873601502E-04 -0.949539628283E-04 -0.100760322241E-03
 -0.106927867523E-03 -0.113479391732E-03 -0.120439138763E-03 -0.127832895740E-03 -0.135688091245E-03
 -0.144033899721E-03 -0.152901352464E-03 -0.162323455576E-03 -0.172335315325E-03 -0.182974271365E-03
 -0.194280038281E-03 -0.206294855976E-03 -0.219063649476E-03 -0.232634198590E-03 -0.247057318229E-03
 -0.262387049827E-03 -0.278680864658E-03 -0.295999879684E-03 -0.314409086731E-03 -0.333977595768E-03
 -0.354778893102E-03 -0.376891115402E-03 -0.400397340454E-03 -0.425385895631E-03 -0.451950685127E-03
 -0.480191536986E-03 -0.510214571149E-03 -0.542132589656E-03 -0.576065490260E-03 -0.612140704844E-03
 -0.650493663979E-03 -0.691268289099E-03 -0.734617513834E-03 -0.780703836105E-03 -0.829699902688E-03
 -0.881789127961E-03 -0.937166348734E-03 -0.996038517051E-03 -0.105862543300E-02 -0.112516051964E-02
 -0.119589164215E-02 -0.127108197365E-02 -0.135101090983E-02 -0.143597503509E-02 -0.152628914250E-02
 -0.162228731046E-02 -0.172432403857E-02 -0.183277544569E-02 -0.194804053298E-02 -0.207054251501E-02
 -0.220073022185E-02 -0.233907957558E-02 -0.248609514390E-02 -0.264231177477E-02 -0.280829631479E-02
 -0.298464941501E-02 -0.317200742753E-02 -0.337104439609E-02 -0.358247414429E-02 -0.380705246454E-02
 -0.404557941132E-02 -0.429890170173E-02 -0.456791522673E-02 -0.485356767583E-02 -0.515686127834E-02
 -0.547885566359E-02 -0.582067084264E-02 -0.618349031358E-02 -0.656856429204E-02 -0.697721306848E-02
 -0.741083049273E-02 -0.787088758656E-02 -0.835893628344E-02 -0.887661329488E-02 -0.942564410118E-02
 -0.100078470639E-01 -0.106251376565E-01 -0.112795328074E-01 -0.119731553504E-01 -0.127082385736E-01
 -0.134871308583E-01 -0.143123003966E-01 -0.151863399751E-01 -0.161119718084E-01 -0.170920524073E-01
 -0.181295774590E-01 -0.192276866996E-01 -0.203896687499E-01 -0.216189658888E-01 -0.229191787294E-01
 -0.242940707625E-01 -0.257475727268E-01 -0.272837867615E-01 -0.289069902905E-01 -0.306216395843E-01
 -0.324323729401E-01 -0.343440134127E-01 -0.363615710257E-01 -0.384902443836E-01 -0.407354216003E-01
 -0.431026804520E-01 -0.455977876535E-01 -0.482266971517E-01 -0.509955473204E-01 -0.539106569326E-01
 -0.569785197775E-01 -0.602057977829E-01 -0.635993124905E-01 -0.671660347286E-01 -0.709130723122E-01
 -0.748476555968E-01 -0.789771206986E-01 -0.833088901917E-01 -0.878504510802E-01 -0.926093298381E-01
 -0.975930643058E-01 -0.102809172223E+00 -0.108265116177E+00 -0.113968264746E+00 -0.119925849605E+00
 -0.126144918382E+00 -0.132632283035E+00 -0.139394463552E+00 -0.146437626755E+00 -0.153767520037E+00
 -0.161389399845E+00 -0.169307954773E+00 -0.177527223131E+00 -0.186050504894E+00 -0.194880267990E+00
 -0.204018048889E+00 -0.213464347541E+00 -0.223218516745E+00 -0.233278646094E+00 -0.243641440717E+00
 -0.254302095121E+00 -0.265254162498E+00 -0.276489420013E+00 -0.287997730646E+00 -0.299766902325E+00
 -0.311782545231E+00 -0.324027928303E+00 -0.336483836159E+00 -0.349128427841E+00 -0.361937098951E+00
 -0.374882348913E+00 -0.387933655129E+00 -0.401057355750E+00 -0.414216542458E+00 -0.427370964142E+00
 -0.440476941509E+00 -0.453487291735E+00 -0.466351261463E+00 -0.479014466262E+00 -0.491418835556E+00
 -0.503502564348E+00 -0.515200076604E+00 -0.526442009360E+00 -0.537155230240E+00 -0.547262903112E+00
 -0.556684615959E+00 -0.565336580977E+00 -0.573131910424E+00 -0.579980963571E+00 -0.585791755104E+00
 -0.590470413630E+00 -0.593921682382E+00 -0.596049458995E+00 -0.596757375077E+00 -0.595949417844E+00
 -0.593530595122E+00 -0.589407643460E+00 -0.583489777217E+00 -0.575689475138E+00 -0.565923300172E+00
 -0.554112748237E+00 -0.540185121135E+00 -0.524074418955E+00 -0.505722246796E+00 -0.485078730366E+00
 -0.462103434064E+00 -0.436766274605E+00 -0.409048421757E+00 -0.378943177016E+00 -0.346456818999E+00
 -0.311609403265E+00 -0.274435502292E+00 -0.234984869935E+00 -0.193323013201E+00 -0.149531653622E+00
 -0.103709060430E+00 -0.559702392472E-01 -0.644696280563E-02  0.447123654245E-01  0.973430189031E-01
  0.151264427310E+00  0.206280828344E+00  0.262182102472E+00  0.318744825308E+00  0.375733615227E+00
  0.432902911650E+00  0.489999363455E+00  0.546764950229E+00  0.602940630891E+00  0.658269551044E+00
  0.712497883079E+00  0.765371361167E+00  0.816628017024E+00  0.865991996555E+00  0.913175105603E+00
  0.957887346412E+00  0.999849849407E+00  0.103880336415E+01  0.107451153446E+01  0.110676174356E+01
  0.113536575833E+01  0.116016094249E+01  0.118101201062E+01  0.119781302381E+01  0.121048927769E+01
  0.121899878738E+01  0.122333317713E+01  0.122351789730E+01  0.121961177846E+01  0.121170598750E+01
  0.119992247547E+01  0.118441201139E+01  0.116535189326E+01  0.114294341723E+01  0.111740917695E+01
  0.108899025436E+01  0.105794334818E+01  0.102453788037E+01  0.989053100154E+00  0.951775200446E+00
  0.912994444870E+00  0.873002299729E+00  0.832088560837E+00  0.790538473734E+00  0.748629860148E+00
  0.706630289620E+00  0.664794365719E+00  0.623361226320E+00  0.582552370056E+00  0.542569924687E+00
  0.503595441959E+00  0.465789260346E+00  0.429290424758E+00  0.394217109587E+00  0.360667471444E+00
  0.328720861177E+00  0.298439329943E+00  0.269869322587E+00  0.243043305112E+00  0.217980817912E+00
  0.194688252577E+00  0.173156925544E+00  0.153360133682E+00  0.135251353390E+00  0.118765865600E+00
  0.103825788376E+00  0.903459537183E-01  0.782381886258E-01  0.674135342506E-01  0.577832098567E-01
  0.492591432299E-01  0.417544695242E-01  0.351840867043E-01  0.294652292343E-01  0.245179926180E-01
  0.202657672177E-01  0.166355725093E-01  0.135583150477E-01  0.109690040697E-01  0.880694801822E-02
  0.701593482549E-02  0.554438064295E-02  0.434542455970E-02  0.337695021025E-02  0.260152405818E-02
  0.198625016266E-02  0.150254947888E-02  0.112587721371E-02  0.835394522267E-03  0.613611417427E-03
  0.446016795917E-03  0.320709524349E-03  0.228042026699E-03  0.160285114325E-03  0.111320153638E-03
  0.763622545734E-04  0.517161012501E-04  0.345643915569E-04
 pseudo wavefunction
  0.288933425834E-08  0.308029728997E-08  0.328388152640E-08  0.350092113331E-08  0.373230540841E-08
  0.397898242522E-08  0.424196291772E-08  0.452232442171E-08  0.482121568993E-08  0.513986139892E-08
  0.547956716706E-08  0.584172490414E-08  0.622781851464E-08  0.663942997782E-08  0.707824582976E-08
  0.754606407373E-08  0.804480154737E-08  0.857650177669E-08  0.914334334925E-08  0.974764884066E-08
  0.103918943312E-07  0.110787195510E-07  0.118109386966E-07  0.125915519613E-07  0.134237578284E-07
  0.143109661767E-07  0.152568122519E-07  0.162651715621E-07  0.173401757567E-07  0.184862295558E-07
  0.197080287979E-07  0.210105796810E-07  0.223992192744E-07  0.238796373872E-07  0.254578998816E-07
  0.271404735271E-07  0.289342524976E-07  0.308465866191E-07  0.328853114855E-07  0.350587805638E-07
  0.373758994213E-07  0.398461622158E-07  0.424796905967E-07  0.452872751770E-07  0.482804197474E-07
  0.514713884115E-07  0.548732558367E-07  0.584999608262E-07  0.623663634322E-07  0.664883058429E-07
  0.708826772946E-07  0.755674832731E-07  0.805619192900E-07  0.858864495335E-07  0.915628907187E-07
  0.976145014793E-07  0.104066077667E-06  0.110944053951E-06  0.118276612128E-06  0.126093796600E-06
  0.134427637470E-06  0.143312281791E-06  0.152784133472E-06  0.162882002442E-06  0.173647263672E-06
  0.185124026699E-06  0.197359316365E-06  0.210403265494E-06  0.224309320304E-06  0.239134459400E-06
  0.254939427235E-06  0.271788983004E-06  0.289752165989E-06  0.308902578435E-06  0.329318687134E-06
  0.351084144926E-06  0.374288133460E-06  0.399025728606E-06  0.425398290014E-06  0.453513876425E-06
  0.483487688429E-06  0.515442540481E-06  0.549509364121E-06  0.585827744449E-06  0.624546492057E-06
  0.665824252757E-06  0.709830157615E-06  0.756744515942E-06  0.806759554084E-06  0.860080203044E-06
  0.916924938157E-06  0.977526674260E-06  0.104213372003E-05  0.111101079538E-05  0.118444011612E-05
  0.126272255028E-05  0.134617885088E-05  0.143515097015E-05  0.153000346062E-05  0.163112496884E-05
  0.173892982773E-05  0.185385975427E-05  0.197638565937E-05  0.210700957728E-05  0.224626672261E-05
  0.239472768326E-05  0.255300075825E-05  0.272173445011E-05  0.290162012198E-05  0.309339483024E-05
  0.329784434449E-05  0.351580636698E-05  0.374817396490E-05  0.399589922942E-05  0.425999717665E-05
  0.454154990632E-05  0.484171103535E-05  0.516171042440E-05  0.550285921676E-05  0.586655521032E-05
  0.625428858446E-05  0.666764800546E-05  0.710832713539E-05  0.757813157111E-05  0.807898624187E-05
  0.861294329571E-05  0.918219050707E-05  0.978906024002E-05  0.104360390037E-04  0.111257776393E-04
  0.118611021803E-04  0.126450254297E-04  0.134807593035E-04  0.143717279886E-04  0.153215819707E-04
  0.163342129893E-04  0.174137699801E-04  0.185646760718E-04  0.197916467050E-04  0.210997089490E-04
  0.224942220939E-04  0.239808996045E-04  0.255658325234E-04  0.272555144212E-04  0.290568679939E-04
  0.309772734188E-04  0.330245985821E-04  0.352072313044E-04  0.375341136942E-04  0.400147787710E-04
  0.426593895067E-04  0.454787804463E-04  0.484845020772E-04  0.516888681282E-04  0.551050059926E-04
  0.587469104810E-04  0.626295011227E-04  0.667686832513E-04  0.711814131227E-04  0.758857673323E-04
  0.809010168145E-04  0.862477057267E-04  0.919477355395E-04  0.980244546766E-04  0.104502754070E-03
  0.111409169021E-03  0.118771987777E-03  0.126621367280E-03  0.134989456536E-03  0.143910528138E-03
  0.153421118442E-03  0.163560177002E-03  0.174369225845E-03  0.185892529247E-03  0.198177274697E-03
  0.211273765783E-03  0.225235627779E-03  0.240120026779E-03  0.255987903251E-03  0.272904220966E-03
  0.290938232305E-03  0.310163761027E-03  0.330659503622E-03  0.352509350479E-03  0.375802728166E-03
  0.400634964189E-03  0.427107675702E-03  0.455329183739E-03  0.485414954614E-03  0.517488070275E-03
  0.551679729478E-03  0.588129781792E-03  0.626987296568E-03  0.668411169124E-03  0.712570766572E-03
  0.759646615825E-03  0.809831136532E-03  0.863329421806E-03  0.920360069848E-03  0.981156069695E-03
  0.104596574460E-02  0.111505375669E-02  0.118870217683E-02  0.126721162382E-02  0.135090247735E-02
  0.144011616935E-02  0.153521655869E-02  0.163659139442E-02  0.174465387325E-02  0.185984429687E-02
  0.198263183558E-02  0.211351640469E-02  0.225303066053E-02  0.240174212363E-02  0.256025543656E-02
  0.272921476471E-02  0.290930634859E-02  0.310126121665E-02  0.330585806817E-02  0.352392633614E-02
  0.375634944069E-02  0.400406824393E-02  0.426808471778E-02  0.454946583677E-02  0.484934770818E-02
  0.516893995274E-02  0.550953034918E-02  0.587248975682E-02  0.625927733043E-02  0.667144604243E-02
  0.711064852760E-02  0.757864326586E-02  0.807730111906E-02  0.860861223774E-02  0.917469335408E-02
  0.977779547696E-02  0.104203120052E-01  0.111047872741E-01  0.118339255512E-01  0.126106004935E-01
  0.134378650814E-01  0.143189620390E-01  0.152573347511E-01  0.162566386854E-01  0.173207533214E-01
  0.184537945911E-01  0.196601278243E-01  0.209443811944E-01  0.223114596471E-01  0.237665592941E-01
  0.253151822411E-01  0.269631518127E-01  0.287166281238E-01  0.305821239364E-01  0.325665207240E-01
  0.346770848502E-01  0.369214837487E-01  0.393078019686E-01  0.418445569243E-01  0.445407141618E-01
  0.474057019177E-01  0.504494247133E-01  0.536822756834E-01  0.571151472919E-01  0.607594400354E-01
  0.646270686777E-01  0.687304654908E-01  0.730825799077E-01  0.776968739134E-01  0.825873124073E-01
  0.877683476819E-01  0.932548970482E-01  0.990623125314E-01  0.105206341433E+00  0.111703076426E+00
  0.118568893701E+00  0.125820377555E+00  0.133474229634E+00  0.141547160894E+00  0.150055764207E+00
  0.159016365351E+00  0.168444849988E+00  0.178356464119E+00  0.188765585366E+00  0.199685462378E+00
  0.211127919598E+00  0.223103024694E+00  0.235618716020E+00  0.248680387710E+00  0.262290430337E+00
  0.276447725550E+00  0.291147093792E+00  0.306378695140E+00  0.322127384488E+00  0.338372023843E+00
  0.355084756444E+00  0.372230249805E+00  0.389764917683E+00  0.407636134500E+00  0.425781459928E+00
  0.444127896222E+00  0.462591206579E+00  0.481075329290E+00  0.499471929754E+00  0.517660140470E+00
  0.535506547917E+00  0.552865494422E+00  0.569579772583E+00  0.585481799020E+00  0.600395362613E+00
  0.614138049149E+00  0.626524448337E+00  0.637370249134E+00  0.646497323523E+00  0.653739885229E+00
  0.658951785833E+00  0.662014973625E+00  0.662849086955E+00  0.661422080585E+00  0.657761687134E+00
  0.651967393046E+00  0.644222457303E+00  0.634805320455E+00  0.624099542788E+00  0.612601178392E+00
  0.600922246048E+00  0.589788714044E+00  0.580031198205E+00  0.572566414312E+00  0.568367372731E+00
  0.568420411685E+00  0.573667505152E+00  0.584938739506E+00  0.603057278372E+00  0.629058114665E+00
  0.664203375084E+00  0.710031090294E+00  0.000000000000E+00  0.000000000000E+00  0.000000000000E+00
  0.000000000000E+00  0.000000000000E+00  0.000000000000E+00  0.000000000000E+00  0.000000000000E+00
  0.000000000000E+00  0.000000000000E+00  0.000000000000E+00  0.000000000000E+00  0.000000000000E+00
  0.000000000000E+00  0.000000000000E+00  0.000000000000E+00  0.000000000000E+00  0.000000000000E+00
  0.000000000000E+00  0.000000000000E+00  0.000000000000E+00  0.000000000000E+00  0.000000000000E+00
  0.000000000000E+00  0.000000000000E+00  0.000000000000E+00  0.000000000000E+00  0.000000000000E+00
  0.000000000000E+00  0.000000000000E+00  0.000000000000E+00  0.000000000000E+00  0.000000000000E+00
  0.000000000000E+00  0.000000000000E+00  0.000000000000E+00
 ae wavefunction
 -0.920765838035E-06 -0.976265523303E-06 -0.103485337413E-05 -0.109671670720E-05 -0.116205358073E-05
 -0.123107346413E-05 -0.130399794503E-05 -0.138106147934E-05 -0.146251218813E-05 -0.154861270181E-05
 -0.163964105751E-05 -0.173589164888E-05 -0.183767623871E-05 -0.194532502943E-05 -0.205918780365E-05
 -0.217963513230E-05 -0.230705966159E-05 -0.244187747595E-05 -0.258452954945E-05 -0.273548328703E-05
 -0.289523416010E-05 -0.306430744986E-05 -0.324326009058E-05 -0.343268264414E-05 -0.363320138008E-05
 -0.384548050416E-05 -0.407022451364E-05 -0.430818071291E-05 -0.456014187970E-05 -0.482694910396E-05
 -0.510949480749E-05 -0.540872595200E-05 -0.572564745449E-05 -0.606132581741E-05 -0.641689299084E-05
 -0.679355048044E-05 -0.719257371767E-05 -0.761531670833E-05 -0.806321697832E-05 -0.853780083531E-05
 -0.904068896683E-05 -0.957360239656E-05 -0.101383688219E-04 -0.107369293574E-04 -0.113713457105E-04
 -0.120438078171E-04 -0.127566419663E-04 -0.135123194482E-04 -0.143134657534E-04 -0.151628703665E-04
 -0.160634971856E-04 -0.170184956119E-04 -0.180312123518E-04 -0.191052039751E-04 -0.202442502846E-04
 -0.214523685286E-04 -0.227338285603E-04 -0.240931689240E-04 -0.255352140105E-04 -0.270650922989E-04
 -0.286882557704E-04 -0.304105005709E-04 -0.322379889920E-04 -0.341772728621E-04 -0.362353184506E-04
 -0.384195329444E-04 -0.407377926422E-04 -0.431984729348E-04 -0.458104802105E-04 -0.485832858107E-04
 -0.515269621362E-04 -0.546522210665E-04 -0.579704548433E-04 -0.614937795361E-04 -0.652350813000E-04
 -0.692080655620E-04 -0.734273093493E-04 -0.779083169369E-04 -0.826675790244E-04 -0.877226356711E-04
 -0.930921432305E-04 -0.987959454959E-04 -0.104855149372E-03 -0.111292205308E-03 -0.118130992818E-03
 -0.125396911375E-03 -0.133116977042E-03 -0.141319925163E-03 -0.150036319500E-03 -0.159298668218E-03
 -0.169141547112E-03 -0.179601730540E-03 -0.190718330545E-03 -0.202532944567E-03 -0.215089812426E-03
 -0.228435982977E-03 -0.242621491121E-03 -0.257699545718E-03 -0.273726729118E-03 -0.290763208952E-03
 -0.308872962930E-03 -0.328124017396E-03 -0.348588700471E-03 -0.370343910607E-03 -0.393471401477E-03
 -0.418058084108E-03 -0.444196347296E-03 -0.471984397329E-03 -0.501526618079E-03 -0.532933952690E-03
 -0.566324308029E-03 -0.601822983178E-03 -0.639563123312E-03 -0.679686200356E-03 -0.722342521915E-03
 -0.767691769958E-03 -0.815903570926E-03 -0.867158098885E-03 -0.921646713530E-03 -0.979572634820E-03
 -0.104115165618E-02 -0.110661289825E-02 -0.117619960521E-02 -0.125016998588E-02 -0.132879810175E-02
 -0.141237480429E-02 -0.150120872389E-02 -0.159562731288E-02 -0.169597794519E-02 -0.180262907518E-02
 -0.191597145838E-02 -0.203641943693E-02 -0.216441229219E-02 -0.230041566786E-02 -0.244492306609E-02
 -0.259845741961E-02 -0.276157274297E-02 -0.293485586559E-02 -0.311892824978E-02 -0.331444789656E-02
 -0.352211134216E-02 -0.374265574805E-02 -0.397686108728E-02 -0.422555242964E-02 -0.448960232826E-02
 -0.476993330977E-02 -0.506752047041E-02 -0.538339417949E-02 -0.571864289211E-02 -0.607441607209E-02
 -0.645192722588E-02 -0.685245704771E-02 -0.727735667578E-02 -0.772805105841E-02 -0.820604242873E-02
 -0.871291388529E-02 -0.925033307542E-02 -0.982005597695E-02 -0.104239307729E-01 -0.110639018122E-01
 -0.117420136492E-01 -0.124604151510E-01 -0.132213636626E-01 -0.140272292165E-01 -0.148804987706E-01
 -0.157837804588E-01 -0.167398078332E-01 -0.177514440760E-01 -0.188216861558E-01 -0.199536689003E-01
 -0.211506689534E-01 -0.224161085817E-01 -0.237535592916E-01 -0.251667452129E-01 -0.266595462027E-01
 -0.282360006160E-01 -0.299003076868E-01 -0.316568294563E-01 -0.335100921803E-01 -0.354647871418E-01
 -0.375257707883E-01 -0.396980641078E-01 -0.419868511482E-01 -0.443974765823E-01 -0.469354422076E-01
 -0.496064022692E-01 -0.524161574796E-01 -0.553706476087E-01 -0.584759425024E-01 -0.617382313880E-01
 -0.651638103098E-01 -0.687590675367E-01 -0.725304667734E-01 -0.764845280017E-01 -0.806278057709E-01
 -0.849668647536E-01 -0.895082523753E-01 -0.942584683274E-01 -0.992239307665E-01 -0.104410939008E+00
 -0.109825632515E+00 -0.115473946002E+00 -0.121361560460E+00 -0.127493849931E+00 -0.133875823869E+00
 -0.140512064943E+00 -0.147406662139E+00 -0.154563139067E+00 -0.161984377383E+00 -0.169672535282E+00
 -0.177628961040E+00 -0.185854101647E+00 -0.194347406592E+00 -0.203107226940E+00 -0.212130709889E+00
 -0.221413689056E+00 -0.230950570849E+00 -0.240734217323E+00 -0.250755826058E+00 -0.261004807695E+00
 -0.271468661873E+00 -0.282132852489E+00 -0.292980683330E+00 -0.303993175295E+00 -0.315148946580E+00
 -0.326424097334E+00 -0.337792100318E+00 -0.349223699069E+00 -0.360686814783E+00 -0.372146462680E+00
 -0.383564677881E+00 -0.394900450027E+00 -0.406109665135E+00 -0.417145053077E+00 -0.427956139777E+00
 -0.438489205294E+00 -0.448687252014E+00 -0.458489990819E+00 -0.467833856285E+00 -0.476652063713E+00
 -0.484874720248E+00 -0.492428998787E+00 -0.499239377729E+00 -0.505227942522E+00 -0.510314740563E+00
 -0.514418179571E+00 -0.517455462512E+00 -0.519343056331E+00 -0.519997195108E+00 -0.519334419561E+00
 -0.517272154047E+00 -0.513729320769E+00 -0.508626989322E+00 -0.501889058515E+00 -0.493442966727E+00
 -0.483220427033E+00 -0.471158182893E+00 -0.457198780311E+00 -0.441291351935E+00 -0.423392408336E+00
 -0.403466630868E+00 -0.381487660054E+00 -0.357438872152E+00 -0.331314135886E+00 -0.303118539598E+00
 -0.272869078111E+00 -0.240595286902E+00 -0.206339809964E+00 -0.170158886431E+00 -0.132122740592E+00
 -0.923158598239E-01 -0.508371463007E-01 -0.779993077936E-02  0.366681594445E-01  0.824254820299E-01
  0.129316810737E+00  0.177173916876E+00  0.225816309938E+00  0.275052167281E+00  0.324679519983E+00
  0.374487812330E+00  0.424259990890E+00  0.473775230537E+00  0.522812120583E+00  0.571151471639E+00
  0.618577070315E+00  0.664872693276E+00  0.709815809730E+00  0.753172204617E+00  0.794697305784E+00
  0.834145330538E+00  0.871280531443E+00  0.905884593445E+00  0.937759497146E+00  0.966728265821E+00
  0.992635536216E+00  0.101534862653E+01  0.103475908071E+01  0.105078443180E+01  0.106336988248E+01
  0.107248964749E+01  0.107814779177E+01  0.108037849831E+01  0.107924577627E+01  0.107484266824E+01
  0.106729003824E+01  0.105673502662E+01  0.104334925674E+01  0.102732687042E+01  0.100888246272E+01
  0.988248979003E+00  0.965675626011E+00  0.941425845649E+00  0.915775384479E+00  0.889010490571E+00
  0.861426257334E+00  0.833325133778E+00  0.805015619793E+00  0.776811176411E+00  0.749029398643E+00
  0.721991528761E+00  0.696022426574E+00  0.671451156203E+00  0.648612387804E+00  0.627848848707E+00
  0.609515076852E+00  0.593982749676E+00  0.581647885630E+00  0.572940270335E+00  0.568335567824E+00
  0.568370760297E+00  0.573663814961E+00  0.584938739506E+00  0.603057278372E+00  0.629058114665E+00
  0.664203375084E+00  0.710031090294E+00  0.000000000000E+00  0.000000000000E+00  0.000000000000E+00
  0.000000000000E+00  0.000000000000E+00  0.000000000000E+00  0.000000000000E+00  0.000000000000E+00
  0.000000000000E+00  0.000000000000E+00  0.000000000000E+00  0.000000000000E+00  0.000000000000E+00
  0.000000000000E+00  0.000000000000E+00  0.000000000000E+00  0.000000000000E+00  0.000000000000E+00
  0.000000000000E+00  0.000000000000E+00  0.000000000000E+00  0.000000000000E+00  0.000000000000E+00
  0.000000000000E+00  0.000000000000E+00  0.000000000000E+00  0.000000000000E+00  0.000000000000E+00
  0.000000000000E+00  0.000000000000E+00  0.000000000000E+00  0.000000000000E+00  0.000000000000E+00
  0.000000000000E+00  0.000000000000E+00  0.000000000000E+00
 pseudo wavefunction
  0.130833164140E-05  0.135087532392E-05  0.139480242102E-05  0.144015791788E-05  0.148698826253E-05
  0.153534141336E-05  0.158526688823E-05  0.163681581524E-05  0.169004098500E-05  0.174499690479E-05
  0.180173985431E-05  0.186032794333E-05  0.192082117123E-05  0.198328148840E-05  0.204777285972E-05
  0.211436133006E-05  0.218311509189E-05  0.225410455515E-05  0.232740241932E-05  0.240308374792E-05
  0.248122604534E-05  0.256190933623E-05  0.264521624745E-05  0.273123209268E-05  0.282004495981E-05
  0.291174580113E-05  0.300642852650E-05  0.310419009949E-05  0.320513063670E-05  0.330935351030E-05
  0.341696545387E-05  0.352807667173E-05  0.364280095179E-05  0.376125578206E-05  0.388356247104E-05
  0.400984627185E-05  0.414023651062E-05  0.427486671884E-05  0.441387477014E-05  0.455740302155E-05
  0.470559845919E-05  0.485861284887E-05  0.501660289151E-05  0.517973038362E-05  0.534816238297E-05
  0.552207137974E-05  0.570163547312E-05  0.588703855374E-05  0.607847049199E-05  0.627612733249E-05
  0.648021149487E-05  0.669093198105E-05  0.690850458935E-05  0.713315213545E-05  0.736510468062E-05
  0.760459976737E-05  0.785188266269E-05  0.810720660928E-05  0.837083308495E-05  0.864303207037E-05
  0.892408232565E-05  0.921427167581E-05  0.951389730564E-05  0.982326606402E-05  0.101426947783E-04
  0.104725105787E-04  0.108130512336E-04  0.111646654953E-04  0.115277134573E-04  0.119025669233E-04
  0.122896097878E-04  0.126892384296E-04  0.131018621179E-04  0.135279034313E-04  0.139677986906E-04
  0.144219984063E-04  0.148909677397E-04  0.153751869798E-04  0.158751520350E-04  0.163913749414E-04
  0.169243843874E-04  0.174747262555E-04  0.180429641814E-04  0.186296801319E-04  0.192354750011E-04
  0.198609692259E-04  0.205068034224E-04  0.211736390421E-04  0.218621590498E-04  0.225730686239E-04
  0.233070958791E-04  0.240649926127E-04  0.248475350755E-04  0.256555247675E-04  0.264897892599E-04
  0.273511830436E-04  0.282405884053E-04  0.291589163328E-04  0.301071074489E-04  0.310861329767E-04
  0.320969957358E-04  0.331407311711E-04  0.342184084156E-04  0.353311313877E-04  0.364800399239E-04
  0.376663109494E-04  0.388911596863E-04  0.401558409015E-04  0.414616501959E-04  0.428099253349E-04
  0.442020476235E-04  0.456394433257E-04  0.471235851306E-04  0.486559936673E-04  0.502382390684E-04
  0.518719425856E-04  0.535587782585E-04  0.553004746377E-04  0.570988165653E-04  0.589556470134E-04
  0.608728689837E-04  0.628524474700E-04  0.648964114845E-04  0.670068561527E-04  0.691859448758E-04
  0.714359115668E-04  0.737590629588E-04  0.761577809918E-04  0.786345252775E-04  0.811918356475E-04
  0.838323347853E-04  0.865587309473E-04  0.893738207747E-04  0.922804921994E-04  0.952817274482E-04
  0.983806061478E-04  0.101580308535E-03  0.104884118775E-03  0.108295428393E-03  0.111817739824E-03
  0.115454670080E-03  0.119209954546E-03  0.123087450903E-03  0.127091143196E-03  0.131225146026E-03
  0.135493708903E-03  0.139901220744E-03  0.144452214528E-03  0.149151372117E-03  0.154003529245E-03
  0.159013680689E-03  0.164186985620E-03  0.169528773147E-03  0.175044548062E-03  0.180739996795E-03
  0.186620993588E-03  0.192693606889E-03  0.198964105993E-03  0.205438967928E-03  0.212124884596E-03
  0.219028770192E-03  0.226157768904E-03  0.233519262913E-03  0.241120880700E-03  0.248970505693E-03
  0.257076285240E-03  0.265446639965E-03  0.274090273488E-03  0.283016182552E-03  0.292233667575E-03
  0.301752343647E-03  0.311582151990E-03  0.321733371926E-03  0.332216633361E-03  0.343042929835E-03
  0.354223632153E-03  0.365770502648E-03  0.377695710103E-03  0.390011845386E-03  0.402731937831E-03
  0.415869472422E-03  0.429438407827E-03  0.443453195348E-03  0.457928798840E-03  0.472880715674E-03
  0.488324998807E-03  0.504278280055E-03  0.520757794638E-03  0.537781407106E-03  0.555367638739E-03
  0.573535696537E-03  0.592305503917E-03  0.611697733267E-03  0.631733840470E-03  0.652436101590E-03
  0.673827651876E-03  0.695932527267E-03  0.718775708619E-03  0.742383168874E-03  0.766781923408E-03
  0.792000083844E-03  0.818066915615E-03  0.845012899596E-03  0.872869798175E-03  0.901670726131E-03
  0.931450226758E-03  0.962244353689E-03  0.994090758940E-03  0.102702878772E-02  0.106109958064E-02
  0.109634618394E-02  0.113281366858E-02  0.117054925882E-02  0.120960247142E-02  0.125002526616E-02
  0.129187220896E-02  0.133520064868E-02  0.138007090884E-02  0.142654649582E-02  0.147469432481E-02
  0.152458496556E-02  0.157629290948E-02  0.162989686029E-02  0.168548005038E-02  0.174313058546E-02
  0.180294182000E-02  0.186501276662E-02  0.192944854248E-02  0.199636085639E-02  0.206586854044E-02
  0.213809813051E-02  0.221318450020E-02  0.229127155357E-02  0.237251298206E-02  0.245707309197E-02
  0.254512770922E-02  0.263686516876E-02  0.273248739682E-02  0.283221109488E-02  0.293626903515E-02
  0.304491147813E-02  0.315840772404E-02  0.327704781084E-02  0.340114437270E-02  0.353103467436E-02
  0.366708283790E-02  0.380968228009E-02  0.395925838023E-02  0.411627140013E-02  0.428121967966E-02
  0.445464313372E-02  0.463712707836E-02  0.482930641663E-02  0.503187021691E-02  0.524556671963E-02
  0.547120881120E-02  0.570968000690E-02  0.596194098842E-02  0.622903674481E-02  0.651210436976E-02
  0.681238157202E-02  0.713121595994E-02  0.747007516562E-02  0.783055787851E-02  0.821440586301E-02
  0.862351703939E-02  0.905995971184E-02  0.952598803247E-02  0.100240587942E-01  0.105568496499E-01
  0.111272788589E-01  0.117385266660E-01  0.123940584180E-01  0.130976495285E-01  0.138534123977E-01
  0.146658253947E-01  0.155397640046E-01  0.164805342394E-01  0.174939083967E-01  0.185861632437E-01
  0.197641206797E-01  0.210351909112E-01  0.224074181399E-01  0.238895287295E-01  0.254909817662E-01
  0.272220218706E-01  0.290937340495E-01  0.311181002880E-01  0.333080574802E-01  0.356775561763E-01
  0.382416194774E-01  0.410164012416E-01  0.440192425673E-01  0.472687252886E-01  0.507847209560E-01
  0.545884334709E-01  0.587024331971E-01  0.631506799858E-01  0.679585321084E-01  0.731527376098E-01
  0.787614040548E-01  0.848139420561E-01  0.913409773437E-01  0.983742254631E-01  0.105946322498E+00
  0.114090604497E+00  0.122840827596E+00  0.132230820156E+00  0.142294057672E+00  0.153063150764E+00
  0.164569236297E+00  0.176841261758E+00  0.189905153405E+00  0.203782859658E+00  0.218491262801E+00
  0.234040954489E+00  0.250434874022E+00  0.267666813055E+00  0.285719796679E+00  0.304564358754E+00
  0.324156739470E+00  0.344437045374E+00  0.365327426982E+00  0.386730346512E+00  0.408527028457E+00
  0.430576208287E+00  0.452713319339E+00  0.474750283892E+00  0.496476100527E+00  0.517658444107E+00
  0.538046514607E+00  0.557375383108E+00  0.575372083062E+00  0.591766191115E+00  0.606418453160E+00
  0.619316421873E+00  0.630472029279E+00  0.639899109226E+00  0.647593639037E+00  0.653520674751E+00
  0.657616503264E+00  0.659802807125E+00  0.660002446016E+00  0.658150057049E+00  0.654197342752E+00
  0.648115544484E+00  0.639897518696E+00  0.629560274522E+00  0.617148236335E+00  0.602736303175E+00
  0.586431825721E+00  0.568374466339E+00  0.548733271862E+00  0.527701290908E+00  0.505488646712E+00
  0.482314797399E+00  0.458401415282E+00  0.433966151026E+00  0.409217799629E+00  0.384352847018E+00
  0.359553308130E+00  0.334985666991E+00  0.310800692396E+00  0.287133887576E+00  0.264106329246E+00
  0.241825658858E+00  0.220387010829E+00  0.199873704293E+00  0.180357588754E+00  0.161899014724E+00
  0.144546485162E+00  0.128336114571E+00  0.113291064699E+00
 ae wavefunction
 -0.396116204160E-03 -0.408850905083E-03 -0.421994357820E-03 -0.435559639599E-03 -0.449560243354E-03
 -0.464010090749E-03 -0.478923545618E-03 -0.494315427808E-03 -0.510201027442E-03 -0.526596119610E-03
 -0.543516979502E-03 -0.560980398011E-03 -0.579003697768E-03 -0.597604749703E-03 -0.616801990056E-03
 -0.636614437933E-03 -0.657061713344E-03 -0.678164055811E-03 -0.699942343496E-03 -0.722418112914E-03
 -0.745613579203E-03 -0.769551656994E-03 -0.794255981920E-03 -0.819750932666E-03 -0.846061653771E-03
 -0.873214078972E-03 -0.901234955321E-03 -0.930151867894E-03 -0.959993265287E-03 -0.990788485777E-03
 -0.102256778424E-02 -0.105536235984E-02 -0.108920438445E-02 -0.112412703189E-02 -0.116016450797E-02
 -0.119735208136E-02 -0.123572611526E-02 -0.127532409999E-02 -0.131618468639E-02 -0.135834772016E-02
 -0.140185427710E-02 -0.144674669923E-02 -0.149306863190E-02 -0.154086506186E-02 -0.159018235622E-02
 -0.164106830252E-02 -0.169357214969E-02 -0.174774465007E-02 -0.180363810248E-02 -0.186130639626E-02
 -0.192080505643E-02 -0.198219128989E-02 -0.204552403262E-02 -0.211086399807E-02 -0.217827372652E-02
 -0.224781763565E-02 -0.231956207201E-02 -0.239357536381E-02 -0.246992787459E-02 -0.254869205811E-02
 -0.262994251424E-02 -0.271375604594E-02 -0.280021171732E-02 -0.288939091267E-02 -0.298137739659E-02
 -0.307625737504E-02 -0.317411955739E-02 -0.327505521945E-02 -0.337915826732E-02 -0.348652530208E-02
 -0.359725568541E-02 -0.371145160585E-02 -0.382921814576E-02 -0.395066334893E-02 -0.407589828875E-02
 -0.420503713679E-02 -0.433819723176E-02 -0.447549914876E-02 -0.461706676865E-02 -0.476302734743E-02
 -0.491351158553E-02 -0.506865369684E-02 -0.522859147728E-02 -0.539346637279E-02 -0.556342354652E-02
 -0.573861194497E-02 -0.591918436298E-02 -0.610529750713E-02 -0.629711205748E-02 -0.649479272721E-02
 -0.669850831996E-02 -0.690843178448E-02 -0.712474026615E-02 -0.734761515526E-02 -0.757724213125E-02
 -0.781381120273E-02 -0.805751674280E-02 -0.830855751894E-02 -0.856713671721E-02 -0.883346195991E-02
 -0.910774531621E-02 -0.939020330511E-02 -0.968105688987E-02 -0.998053146328E-02 -0.102888568228E-01
 -0.106062671350E-01 -0.109330008879E-01 -0.112693008306E-01 -0.116154138991E-01 -0.119715911272E-01
 -0.123380875407E-01 -0.127151620350E-01 -0.131030772333E-01 -0.135020993247E-01 -0.139124978810E-01
 -0.143345456498E-01 -0.147685183228E-01 -0.152146942777E-01 -0.156733542912E-01 -0.161447812214E-01
 -0.166292596581E-01 -0.171270755379E-01 -0.176385157222E-01 -0.181638675363E-01 -0.187034182656E-01
 -0.192574546080E-01 -0.198262620786E-01 -0.204101243638E-01 -0.210093226222E-01 -0.216241347294E-01
 -0.222548344624E-01 -0.229016906206E-01 -0.235649660813E-01 -0.242449167827E-01 -0.249417906338E-01
 -0.256558263463E-01 -0.263872521823E-01 -0.271362846177E-01 -0.279031269122E-01 -0.286879675858E-01
 -0.294909787942E-01 -0.303123145998E-01 -0.311521091330E-01 -0.320104746405E-01 -0.328874994129E-01
 -0.337832455896E-01 -0.346977468349E-01 -0.356310058801E-01 -0.365829919274E-01 -0.375536379113E-01
 -0.385428376116E-01 -0.395504426154E-01 -0.405762591222E-01 -0.416200445892E-01 -0.426815042135E-01
 -0.437602872472E-01 -0.448559831429E-01 -0.459681175283E-01 -0.470961480072E-01 -0.482394597869E-01
 -0.493973611323E-01 -0.505690786464E-01 -0.517537523810E-01 -0.529504307793E-01 -0.541580654565E-01
 -0.553755058232E-01 -0.566014935596E-01 -0.578346569511E-01 -0.590735050953E-01 -0.603164219951E-01
 -0.615616605541E-01 -0.628073364920E-01 -0.640514222030E-01 -0.652917405805E-01 -0.665259588373E-01
 -0.677515823511E-01 -0.689659485729E-01 -0.701662210351E-01 -0.713493835052E-01 -0.725122343324E-01
 -0.736513810399E-01 -0.747632352232E-01 -0.758440078158E-01 -0.768897047933E-01 -0.778961233918E-01
 -0.788588489204E-01 -0.797732522572E-01 -0.806344881233E-01 -0.814374942351E-01 -0.821769914430E-01
 -0.828474849717E-01 -0.834432668834E-01 -0.839584198914E-01 -0.843868226601E-01 -0.847221567308E-01
 -0.849579152219E-01 -0.850874134541E-01 -0.851038016598E-01 -0.850000799356E-01 -0.847691156049E-01
 -0.844036631534E-01 -0.838963869098E-01 -0.832398866318E-01 -0.824267261667E-01 -0.814494653422E-01
 -0.803006952410E-01 -0.789730770026E-01 -0.774593842815E-01 -0.757525494799E-01 -0.738457138490E-01
 -0.717322815361E-01 -0.694059776245E-01 -0.668609101858E-01 -0.640916363283E-01 -0.610932321879E-01
 -0.578613667612E-01 -0.543923794385E-01 -0.506833610336E-01 -0.467322380558E-01 -0.425378599008E-01
 -0.381000885698E-01 -0.334198904457E-01 -0.284994295716E-01 -0.233421617810E-01 -0.179529289257E-01
 -0.123380523357E-01 -0.650542453290E-02 -0.464598116723E-03  0.577312934098E-02  0.121946355797E-01
  0.187849002552E-01  0.255269388674E-01  0.324017447960E-01  0.393882399913E-01  0.464632347307E-01
  0.536013969436E-01  0.607752320457E-01  0.679550750062E-01  0.751090973681E-01  0.822033329027E-01
  0.892017261791E-01  0.960662082193E-01  0.102756802510E+00  0.109231762963E+00  0.115447743816E+00
  0.121360000276E+00  0.126922618585E+00  0.132088774619E+00  0.136811020712E+00  0.141041600624E+00
  0.144732792335E+00  0.147837277863E+00  0.150308538688E+00  0.152101274811E+00  0.153171845019E+00
  0.153478725676E+00  0.152982985006E+00  0.151648769638E+00  0.149443799907E+00  0.146339870111E+00
  0.142313349550E+00  0.137345679838E+00  0.131423863435E+00  0.124540937996E+00  0.116696430394E+00
  0.107896783880E+00  0.981557510930E-01  0.874947451879E-01  0.759431407690E-01  0.635385161640E-01
  0.503268285164E-01  0.363625137413E-01  0.217085043722E-01  0.643615997499E-02 -0.937489327580E-02
 -0.256370154229E-01 -0.422548988304E-01 -0.591260102295E-01 -0.761411373344E-01 -0.931850600133E-01
 -0.110137381693E+00 -0.126873568688E+00 -0.143266229311E+00 -0.159186573765E+00 -0.174505785600E+00
 -0.189095774253E+00 -0.202828782026E+00 -0.215575997806E+00 -0.227206519526E+00 -0.237588451753E+00
 -0.246592421920E+00 -0.254095688100E+00 -0.259985003695E+00 -0.264158059068E+00 -0.266524254853E+00
 -0.267005388901E+00 -0.265536440443E+00 -0.262066423013E+00 -0.256559210507E+00 -0.248994235177E+00
 -0.239366978895E+00 -0.227689212839E+00 -0.213988974573E+00 -0.198310295597E+00 -0.180712706266E+00
 -0.161270550165E+00 -0.140072139662E+00 -0.117218781792E+00 -0.928236993500E-01 -0.670108678849E-01
 -0.399137849367E-01 -0.116741835470E-01  0.175593005776E-01  0.476325012642E-01  0.783871256625E-01
  0.109662179026E+00  0.141295393276E+00  0.173124632510E+00  0.204989236946E+00  0.236731255787E+00
  0.268196513214E+00  0.299235455327E+00  0.329703743048E+00  0.359462586948E+00  0.388378863640E+00
  0.416325096627E+00  0.443179423270E+00  0.468825692481E+00  0.493153849767E+00  0.516060778786E+00
  0.537451796605E+00  0.557243031728E+00  0.575364858380E+00  0.591766191115E+00  0.606418453160E+00
  0.619316421873E+00  0.630472029279E+00  0.639899109226E+00  0.647593639037E+00  0.653520674751E+00
  0.657616503264E+00  0.659802807125E+00  0.660002446016E+00  0.658150057049E+00  0.654197342752E+00
  0.648115544484E+00  0.639897518696E+00  0.629560274522E+00  0.617148236335E+00  0.602736303175E+00
  0.586431825721E+00  0.568374466339E+00  0.548733271862E+00  0.527701290908E+00  0.505488646712E+00
  0.482314797399E+00  0.458401415282E+00  0.433966151026E+00  0.409217799629E+00  0.384352847018E+00
  0.359553308130E+00  0.334985666991E+00  0.310800692396E+00  0.287133887576E+00  0.264106329246E+00
  0.241825658858E+00  0.220387010829E+00  0.199873704293E+00  0.180357588754E+00  0.161899014724E+00
  0.144546485162E+00  0.128336114571E+00  0.113291064699E+00
 pseudo wavefunction
 -0.803708290088E-05 -0.829842879702E-05 -0.856827301076E-05 -0.884689188629E-05 -0.913457075383E-05
 -0.943160422186E-05 -0.973829647879E-05 -0.100549616045E-04 -0.103819238919E-04 -0.107195181793E-04
 -0.110680901929E-04 -0.114279969013E-04 -0.117996068807E-04 -0.121833006926E-04 -0.125794712732E-04
 -0.129885243365E-04 -0.134108787889E-04 -0.138469671588E-04 -0.142972360393E-04 -0.147621465459E-04
 -0.152421747882E-04 -0.157378123578E-04 -0.162495668318E-04 -0.167779622923E-04 -0.173235398636E-04
 -0.178868582659E-04 -0.184684943877E-04 -0.190690438766E-04 -0.196891217492E-04 -0.203293630211E-04
 -0.209904233573E-04 -0.216729797432E-04 -0.223777311784E-04 -0.231053993924E-04 -0.238567295838E-04
 -0.246324911833E-04 -0.254334786417E-04 -0.262605122439E-04 -0.271144389485E-04 -0.279961332553E-04
 -0.289064981011E-04 -0.298464657844E-04 -0.308169989199E-04 -0.318190914249E-04 -0.328537695366E-04
 -0.339220928634E-04 -0.350251554704E-04 -0.361640869995E-04 -0.373400538262E-04 -0.385542602547E-04
 -0.398079497510E-04 -0.411024062164E-04 -0.424389553026E-04 -0.438189657692E-04 -0.452438508859E-04
 -0.467150698796E-04 -0.482341294295E-04 -0.498025852095E-04 -0.514220434825E-04 -0.530941627447E-04
 -0.548206554249E-04 -0.566032896385E-04 -0.584438909980E-04 -0.603443444835E-04 -0.623065963734E-04
 -0.643326562375E-04 -0.664245989963E-04 -0.685845670457E-04 -0.708147724519E-04 -0.731174992174E-04
 -0.754951056207E-04 -0.779500266322E-04 -0.804847764086E-04 -0.831019508686E-04 -0.858042303523E-04
 -0.885943823678E-04 -0.914752644256E-04 -0.944498269674E-04 -0.975211163885E-04 -0.100692278159E-03
 -0.103966560049E-03 -0.107347315453E-03 -0.110838006829E-03 -0.114442209247E-03 -0.118163614050E-03
 -0.122006032642E-03 -0.125973400391E-03 -0.130069780662E-03 -0.134299368986E-03 -0.138666497358E-03
 -0.143175638679E-03 -0.147831411342E-03 -0.152638583970E-03 -0.157602080300E-03 -0.162726984237E-03
 -0.168018545071E-03 -0.173482182852E-03 -0.179123493961E-03 -0.184948256842E-03 -0.190962437939E-03
 -0.197172197815E-03 -0.203583897473E-03 -0.210204104891E-03 -0.217039601761E-03 -0.224097390453E-03
 -0.231384701209E-03 -0.238908999568E-03 -0.246677994035E-03 -0.254699644007E-03 -0.262982167948E-03
 -0.271534051846E-03 -0.280364057932E-03 -0.289481233701E-03 -0.298894921214E-03 -0.308614766721E-03
 -0.318650730589E-03 -0.329013097562E-03 -0.339712487358E-03 -0.350759865619E-03 -0.362166555215E-03
 -0.373944247929E-03 -0.386105016524E-03 -0.398661327214E-03 -0.411626052544E-03 -0.425012484701E-03
 -0.438834349264E-03 -0.453105819416E-03 -0.467841530631E-03 -0.483056595842E-03 -0.498766621129E-03
 -0.514987721924E-03 -0.531736539767E-03 -0.549030259617E-03 -0.566886627760E-03 -0.585323970306E-03
 -0.604361212331E-03 -0.624017897653E-03 -0.644314209293E-03 -0.665270990632E-03 -0.686909767290E-03
 -0.709252769766E-03 -0.732322956847E-03 -0.756144039843E-03 -0.780740507651E-03 -0.806137652706E-03
 -0.832361597832E-03 -0.859439324050E-03 -0.887398699361E-03 -0.916268508562E-03 -0.946078484121E-03
 -0.976859338174E-03 -0.100864279567E-02 -0.104146162873E-02 -0.107534969226E-02 -0.111034196090E-02
 -0.114647456734E-02 -0.118378484202E-02 -0.122231135443E-02 -0.126209395591E-02 -0.130317382414E-02
 -0.134559350930E-02 -0.138939698210E-02 -0.143462968372E-02 -0.148133857766E-02 -0.152957220377E-02
 -0.157938073450E-02 -0.163081603339E-02 -0.168393171610E-02 -0.173878321399E-02 -0.179542784045E-02
 -0.185392486008E-02 -0.191433556098E-02 -0.197672333026E-02 -0.204115373295E-02 -0.210769459459E-02
 -0.217641608768E-02 -0.224739082225E-02 -0.232069394079E-02 -0.239640321784E-02 -0.247459916460E-02
 -0.255536513879E-02 -0.263878746026E-02 -0.272495553260E-02 -0.281396197130E-02 -0.290590273888E-02
 -0.300087728744E-02 -0.309898870936E-02 -0.320034389653E-02 -0.330505370888E-02 -0.341323315300E-02
 -0.352500157146E-02 -0.364048284380E-02 -0.375980560010E-02 -0.388310344807E-02 -0.401051521494E-02
 -0.414218520512E-02 -0.427826347515E-02 -0.441890612731E-02 -0.456427562344E-02 -0.471454112078E-02
 -0.486987883164E-02 -0.503047240902E-02 -0.519651336045E-02 -0.536820149249E-02 -0.554574538868E-02
 -0.572936292380E-02 -0.591928181789E-02 -0.611574023339E-02 -0.631898741949E-02 -0.652928440788E-02
 -0.674690476468E-02 -0.697213540359E-02 -0.720527746612E-02 -0.744664727481E-02 -0.769657736651E-02
 -0.795541761302E-02 -0.822353643720E-02 -0.850132213365E-02 -0.878918430364E-02 -0.908755541506E-02
 -0.939689249920E-02 -0.971767899718E-02 -0.100504267702E-01 -0.103956782893E-01 -0.107540090208E-01
 -0.111260300273E-01 -0.115123908032E-01 -0.119137823678E-01 -0.123309406401E-01 -0.127646501218E-01
 -0.132157479174E-01 -0.136851281242E-01 -0.141737466252E-01 -0.146826263245E-01 -0.152128628656E-01
 -0.157656308781E-01 -0.163421908020E-01 -0.169438963437E-01 -0.175722026207E-01 -0.182286750604E-01
 -0.189149991209E-01 -0.196329909095E-01 -0.203846087796E-01 -0.211719659950E-01 -0.219973445568E-01
 -0.228632102970E-01 -0.237722293486E-01 -0.247272861146E-01 -0.257315028646E-01 -0.267882610967E-01
 -0.279012248166E-01 -0.290743658906E-01 -0.303119916440E-01 -0.316187748854E-01 -0.329997865480E-01
 -0.344605311509E-01 -0.360069852920E-01 -0.376456393956E-01 -0.393835429450E-01 -0.412283534390E-01
 -0.431883893159E-01 -0.452726870923E-01 -0.474910629635E-01 -0.498541791099E-01 -0.523736149418E-01
 -0.550619435042E-01 -0.579328132355E-01 -0.610010352467E-01 -0.642826762412E-01 -0.677951571405E-01
 -0.715573574063E-01 -0.755897249592E-01 -0.799143914781E-01 -0.845552927229E-01 -0.895382933480E-01
 -0.948913154655E-01 -0.100644469963E+00 -0.106830189274E+00 -0.113483359942E+00 -0.120641452891E+00
 -0.128344648805E+00 -0.136635955443E+00 -0.145561313012E+00 -0.155169682941E+00 -0.165513114466E+00
 -0.176646782394E+00 -0.188628988197E+00 -0.201521115231E+00 -0.215387527340E+00 -0.230295398370E+00
 -0.246314458205E+00 -0.263516638846E+00 -0.281975601728E+00 -0.301766125014E+00 -0.322963326974E+00
 -0.345641698784E+00 -0.369873917326E+00 -0.395729405741E+00 -0.423272606902E+00 -0.452560932597E+00
 -0.483642349408E+00 -0.516552561139E+00 -0.551311747681E+00 -0.587920821601E+00 -0.626357167230E+00
 -0.666569832959E+00 -0.708474156714E+00 -0.751945817896E+00 -0.796814327385E+00 -0.842855991646E+00
 -0.889786418529E+00 -0.937252672472E+00 -0.984825236500E+00 -0.103198999896E+01 -0.107814055538E+01
 -0.112257120047E+01 -0.116447108296E+01 -0.120292010466E+01 -0.123688726431E+01 -0.126523227150E+01
 -0.128671138154E+01 -0.129998851893E+01 -0.130365285419E+01 -0.129624405938E+01 -0.127628647133E+01
 -0.124233331274E+01 -0.119302192905E+01 -0.112714065763E+01 -0.104370741708E+01 -0.942059348877E+00
 -0.821951825393E+00 -0.683663831661E+00 -0.528105126047E+00 -0.356921920923E+00 -0.172628272305E+00
  0.214580510462E-01  0.221321517559E+00  0.000000000000E+00  0.000000000000E+00  0.000000000000E+00
  0.000000000000E+00  0.000000000000E+00  0.000000000000E+00  0.000000000000E+00  0.000000000000E+00
  0.000000000000E+00  0.000000000000E+00  0.000000000000E+00  0.000000000000E+00  0.000000000000E+00
  0.000000000000E+00  0.000000000000E+00  0.000000000000E+00  0.000000000000E+00  0.000000000000E+00
  0.000000000000E+00  0.000000000000E+00  0.000000000000E+00  0.000000000000E+00  0.000000000000E+00
  0.000000000000E+00  0.000000000000E+00  0.000000000000E+00  0.000000000000E+00  0.000000000000E+00
  0.000000000000E+00  0.000000000000E+00  0.000000000000E+00  0.000000000000E+00  0.000000000000E+00
  0.000000000000E+00  0.000000000000E+00  0.000000000000E+00
 ae wavefunction
  0.133250596539E-02  0.137534456727E-02  0.141955818012E-02  0.146519079479E-02  0.151228780049E-02
  0.156089602867E-02  0.161106379817E-02  0.166284096187E-02  0.171627895459E-02  0.177143084256E-02
  0.182835137429E-02  0.188709703308E-02  0.194772609097E-02  0.201029866441E-02  0.207487677154E-02
  0.214152439118E-02  0.221030752357E-02  0.228129425293E-02  0.235455481182E-02  0.243016164743E-02
  0.250818948982E-02  0.258871542204E-02  0.267181895257E-02  0.275758208945E-02  0.284608941697E-02
  0.293742817425E-02  0.303168833631E-02  0.312896269723E-02  0.322934695589E-02  0.333293980399E-02
  0.343984301660E-02  0.355016154526E-02  0.366400361366E-02  0.378148081594E-02  0.390270821780E-02
  0.402780446023E-02  0.415689186621E-02  0.429009655019E-02  0.442754853056E-02  0.456938184509E-02
  0.471573466948E-02  0.486674943891E-02  0.502257297285E-02  0.518335660306E-02  0.534925630479E-02
  0.552043283141E-02  0.569705185229E-02  0.587928409416E-02  0.606730548592E-02  0.626129730688E-02
  0.646144633858E-02  0.666794502018E-02  0.688099160740E-02  0.710079033512E-02  0.732755158354E-02
  0.756149204815E-02  0.780283491303E-02  0.805181002831E-02  0.830865409078E-02  0.857361082847E-02
  0.884693118869E-02  0.912887352966E-02  0.941970381586E-02  0.971969581660E-02  0.100291313082E-01
  0.103483002794E-01  0.106775011403E-01  0.110170409338E-01  0.113672355509E-01  0.117284099483E-01
  0.121008983687E-01  0.124850445642E-01  0.128812020208E-01  0.132897341870E-01  0.137110147016E-01
  0.141454276258E-01  0.145933676742E-01  0.150552404479E-01  0.155314626683E-01  0.160224624098E-01
  0.165286793333E-01  0.170505649184E-01  0.175885826935E-01  0.181432084651E-01  0.187149305434E-01
  0.193042499648E-01  0.199116807106E-01  0.205377499199E-01  0.211829980977E-01  0.218479793150E-01
  0.225332614017E-01  0.232394261305E-01  0.239670693901E-01  0.247168013473E-01  0.254892465959E-01
  0.262850442912E-01  0.271048482683E-01  0.279493271430E-01  0.288191643929E-01  0.297150584164E-01
  0.306377225684E-01  0.315878851700E-01  0.325662894899E-01  0.335736936936E-01  0.346108707609E-01
  0.356786083646E-01  0.367777087105E-01  0.379089883343E-01  0.390732778509E-01  0.402714216544E-01
  0.415042775625E-01  0.427727164031E-01  0.440776215371E-01  0.454198883139E-01  0.468004234533E-01
  0.482201443493E-01  0.496799782904E-01  0.511808615892E-01  0.527237386170E-01  0.543095607342E-01
  0.559392851125E-01  0.576138734388E-01  0.593342904950E-01  0.611015026047E-01  0.629164759385E-01
  0.647801746690E-01  0.666935589661E-01  0.686575828230E-01  0.706731917021E-01  0.727413199911E-01
  0.748628882575E-01  0.770388002893E-01  0.792699399124E-01  0.815571675680E-01  0.839013166419E-01
  0.863031895285E-01  0.887635534168E-01  0.912831357863E-01  0.938626195939E-01  0.965026381413E-01
  0.992037696040E-01  0.101966531209E+00  0.104791373041E+00  0.107678671471E+00  0.110628722174E+00
  0.113641732735E+00  0.116717814824E+00  0.119856975914E+00  0.123059110540E+00  0.126323991069E+00
  0.129651257975E+00  0.133040409607E+00  0.136490791424E+00  0.140001584693E+00  0.143571794634E+00
  0.147200238007E+00  0.150885530123E+00  0.154626071279E+00  0.158420032607E+00  0.162265341340E+00
  0.166159665488E+00  0.170100397935E+00  0.174084639954E+00  0.178109184164E+00  0.182170496931E+00
  0.186264700241E+00  0.190387553075E+00  0.194534432301E+00  0.198700313147E+00  0.202879749276E+00
  0.207066852533E+00  0.211255272426E+00  0.215438175403E+00  0.219608224021E+00  0.223757556091E+00
  0.227877763914E+00  0.231959873714E+00  0.235994325418E+00  0.239970952914E+00  0.243878964963E+00
  0.247706926931E+00  0.251442743556E+00  0.255073642948E+00  0.258586162064E+00  0.261966133919E+00
  0.265198676800E+00  0.268268185776E+00  0.271158326841E+00  0.273852034014E+00  0.276331509773E+00
  0.278578229198E+00  0.280572948257E+00  0.282295716640E+00  0.283725895622E+00  0.284842181421E+00
  0.285622634552E+00  0.286044715698E+00  0.286085328622E+00  0.285720870679E+00  0.284927291489E+00
  0.283680160322E+00  0.281954742783E+00  0.279726087355E+00  0.276969122362E+00  0.273658763901E+00
  0.269770035261E+00  0.265278198324E+00  0.260158897403E+00  0.254388315914E+00  0.247943346227E+00
  0.240801772958E+00  0.232942469885E+00  0.224345610560E+00  0.214992892590E+00  0.204867775410E+00
  0.193955731236E+00  0.182244508731E+00  0.169724408720E+00  0.156388571099E+00  0.142233271887E+00
  0.127258229089E+00  0.111466915810E+00  0.948668787636E-01  0.774700599644E-01  0.592931190867E-01
  0.403577535530E-01  0.206910130507E-01  0.325604811369E-03 -0.206998142876E-01 -0.423403628364E-01
 -0.645446811114E-01 -0.872547018284E-01 -0.110405448138E+00 -0.133924860800E+00 -0.157733656020E+00
 -0.181745215791E+00 -0.205865514086E+00 -0.229993084914E+00 -0.254019041665E+00 -0.277827160403E+00
 -0.301294041848E+00 -0.324289366375E+00 -0.346676253383E+00 -0.368311730736E+00 -0.389047314569E+00
 -0.408729695886E+00 -0.427201529910E+00 -0.444302325729E+00 -0.459869435716E+00 -0.473739145046E+00
 -0.485747860811E+00 -0.495733398638E+00 -0.503536362658E+00 -0.509001612793E+00 -0.511979811820E+00
 -0.512329043766E+00 -0.509916493981E+00 -0.504620180572E+00 -0.496330725757E+00 -0.484953154767E+00
 -0.470408708364E+00 -0.452636653904E+00 -0.431596077733E+00 -0.407267640337E+00 -0.379655272927E+00
 -0.348787792413E+00 -0.314720408997E+00 -0.277536098586E+00 -0.237346810030E+00 -0.194294476209E+00
 -0.148551797432E+00 -0.100322767136E+00 -0.498429127986E-01  0.262076995011E-02  0.567702061111E-01
  0.112276963711E+00  0.168783319335E+00  0.225903683865E+00  0.283226427438E+00  0.340316182627E+00
  0.396716758270E+00  0.451954834279E+00  0.505544545355E+00  0.556992738753E+00  0.605803966355E+00
  0.651483403048E+00  0.693535969668E+00  0.731462336250E+00  0.764756508033E+00  0.792911009202E+00
  0.815430378255E+00  0.831846608130E+00  0.841730396917E+00  0.844697771158E+00  0.840414710899E+00
  0.828601727835E+00  0.809038974540E+00  0.781571751213E+00  0.746116061875E+00  0.702663865414E+00
  0.651287752140E+00  0.592144893319E+00  0.525480220622E+00  0.451628864049E+00  0.371017910353E+00
  0.284167546934E+00  0.191691639065E+00  0.942977625232E-01 -0.721331892923E-02 -0.111948775836E+00
 -0.218925515411E+00 -0.327072779293E+00 -0.435235683864E+00 -0.542179876607E+00 -0.646597500992E+00
 -0.747114669687E+00 -0.842300644603E+00 -0.930678912457E+00 -0.101074033858E+01 -0.108095858837E+01
 -0.113980804481E+01 -0.118578453144E+01 -0.121742927306E+01 -0.123335666481E+01 -0.123228654332E+01
 -0.121308167845E+01 -0.117479110394E+01 -0.111669962733E+01 -0.103838341949E+01 -0.939771005433E+00
 -0.821208270066E+00 -0.683525198672E+00 -0.528100886040E+00 -0.356921920923E+00 -0.172628272305E+00
  0.214580510462E-01  0.221321517559E+00  0.000000000000E+00  0.000000000000E+00  0.000000000000E+00
  0.000000000000E+00  0.000000000000E+00  0.000000000000E+00  0.000000000000E+00  0.000000000000E+00
  0.000000000000E+00  0.000000000000E+00  0.000000000000E+00  0.000000000000E+00  0.000000000000E+00
  0.000000000000E+00  0.000000000000E+00  0.000000000000E+00  0.000000000000E+00  0.000000000000E+00
  0.000000000000E+00  0.000000000000E+00  0.000000000000E+00  0.000000000000E+00  0.000000000000E+00
  0.000000000000E+00  0.000000000000E+00  0.000000000000E+00  0.000000000000E+00  0.000000000000E+00
  0.000000000000E+00  0.000000000000E+00  0.000000000000E+00  0.000000000000E+00  0.000000000000E+00
  0.000000000000E+00  0.000000000000E+00  0.000000000000E+00
 pseudo wavefunction
  0.105379970627E-12  0.115997957819E-12  0.127685803460E-12  0.140551305485E-12  0.154713123449E-12
  0.170301872933E-12  0.187461330219E-12  0.206349758355E-12  0.227141366826E-12  0.250027918298E-12
  0.275220497267E-12  0.302951456904E-12  0.333476562067E-12  0.367077348242E-12  0.404063718167E-12
  0.444776800090E-12  0.489592094020E-12  0.538922934996E-12  0.593224305308E-12  0.652997030834E-12
  0.718792400199E-12  0.791217249352E-12  0.870939558465E-12  0.958694612762E-12  0.105529178412E-11
  0.116162199597E-11  0.127866594034E-11  0.140750312287E-11  0.154932181919E-11  0.170543003445E-11
  0.187726756718E-11  0.206641928864E-11  0.227462976026E-11  0.250381932382E-11  0.275610181292E-11
  0.303380404908E-11  0.333948730213E-11  0.367597091308E-11  0.404635829705E-11  0.445406556636E-11
  0.490285303759E-11  0.539685991328E-11  0.594064245811E-11  0.653921602170E-11  0.719810129554E-11
  0.792337523081E-11  0.872172708655E-11  0.960052012519E-11  0.105678595246E-10  0.116326671325E-10
  0.128047637538E-10  0.140949597283E-10  0.155151546352E-10  0.170784470444E-10  0.187992553248E-10
  0.206934506268E-10  0.227785032625E-10  0.250736438363E-10  0.276000406097E-10  0.303809947381E-10
  0.334421551791E-10  0.368117552543E-10  0.405208730483E-10  0.446037180430E-10  0.490979466352E-10
  0.540450094437E-10  0.594905336115E-10  0.654847436285E-10  0.720829245553E-10  0.793459319214E-10
  0.873407530002E-10  0.961411246369E-10  0.105828213329E-09  0.116491363831E-09  0.128228923185E-09
  0.141149147785E-09  0.155371201832E-09  0.171026256391E-09  0.188258699194E-09  0.207227466333E-09
  0.228107508143E-09  0.251091402775E-09  0.276391132356E-09  0.304240038118E-09  0.334894972511E-09
  0.368638668173E-09  0.405782345584E-09  0.446668583474E-09  0.491674478439E-09  0.541215122926E-09
  0.595747433648E-09  0.655774365749E-09  0.721849551580E-09  0.794582406872E-09  0.874643751402E-09
  0.962771995987E-09  0.105977995287E-08  0.116656233231E-08  0.128410399453E-08  0.141348903308E-08
  0.155591077348E-08  0.171268277924E-08  0.188525096692E-08  0.207520694180E-08  0.228430267723E-08
  0.251446667313E-08  0.276782174246E-08  0.304670458996E-08  0.335368736345E-08  0.369160137673E-08
  0.406356322266E-08  0.447300351735E-08  0.492369854057E-08  0.541980506413E-08  0.596589868949E-08
  0.656701604820E-08  0.722870125422E-08  0.795705703679E-08  0.875880102514E-08  0.964132770435E-08
  0.106127766136E-07  0.116821074161E-07  0.128591825320E-07  0.141548580981E-07  0.155810840919E-07
  0.171510145427E-07  0.188791288491E-07  0.207813653177E-07  0.228752681582E-07  0.251801492873E-07
  0.277172664370E-07  0.305100192058E-07  0.335841648646E-07  0.369680559045E-07  0.406929015192E-07
  0.447930554311E-07  0.493063327179E-07  0.542743585589E-07  0.597429521182E-07  0.657625491041E-07
  0.723886669016E-07  0.796824165666E-07  0.877110664024E-07  0.965486623159E-07  0.106276710672E-06
  0.116984929946E-06  0.128772078096E-06  0.141746863293E-06  0.156028946403E-06  0.171750044457E-06
  0.189055145288E-06  0.208103844532E-06  0.229071817318E-06  0.252152438210E-06  0.277558564342E-06
  0.305524498166E-06  0.336308147932E-06  0.370193405775E-06  0.407492765367E-06  0.448550203227E-06
  0.493744350255E-06  0.543491982723E-06  0.598251864871E-06  0.658528978538E-06  0.724879178771E-06
  0.797914318335E-06  0.878307888294E-06  0.966801226654E-06  0.106421035223E-05  0.117143348671E-05
  0.128945933409E-05  0.141937619390E-05  0.156238199189E-05  0.171979532075E-05  0.189306759229E-05
  0.208379641306E-05  0.229374030648E-05  0.252483491682E-05  0.277921084424E-05  0.305921327492E-05
  0.336742358661E-05  0.370668312857E-05  0.408011939420E-05  0.449117482709E-05  0.494363852503E-05
  0.544168113337E-05  0.598989324799E-05  0.659332768063E-05  0.725754597437E-05  0.798866959608E-05
  0.879343627542E-05  0.967926200688E-05  0.106543092831E-04  0.117275621849E-04  0.129089090144E-04
  0.142092332299E-04  0.156405135116E-04  0.172159338753E-04  0.189500048385E-04  0.208586967477E-04
  0.229595864804E-04  0.252720188629E-04  0.278172842728E-04  0.306188140442E-04  0.337023954528E-04
  0.370964082355E-04  0.408320847918E-04  0.449437964277E-04  0.494693682348E-04  0.544504254554E-04
  0.599327744634E-04  0.659668218006E-04  0.726080350438E-04  0.799174496523E-04  0.879622263478E-04
  0.968162640255E-04  0.106560873685E-03  0.117285519397E-03  0.129088632918E-03  0.142078509190E-03
  0.156374290673E-03  0.172107049222E-03  0.189420975052E-03  0.208474683243E-03  0.229442649255E-03
  0.252516785975E-03  0.277908176044E-03  0.305848974467E-03  0.336594497936E-03  0.370425518821E-03
  0.407650783441E-03  0.448609776025E-03  0.493675751758E-03  0.543259064371E-03  0.597810816086E-03
  0.657826860159E-03  0.723852188946E-03  0.796485743294E-03  0.876385682149E-03  0.964275154569E-03
  0.106094861989E-02  0.116727876555E-02  0.128422407615E-02  0.141283711149E-02  0.155427355596E-02
  0.170980210628E-02  0.188081526959E-02  0.206884114910E-02  0.227555629971E-02  0.250279974166E-02
  0.275258822559E-02  0.302713284820E-02  0.332885712299E-02  0.366041661600E-02  0.402472026147E-02
  0.442495347682E-02  0.486460320034E-02  0.534748497793E-02  0.587777222690E-02  0.646002780535E-02
  0.709923801375E-02  0.780084915147E-02  0.857080674361E-02  0.941559754332E-02  0.103422943992E-01
  0.113586040571E-01  0.124729179393E-01  0.136943659094E-01  0.150328729879E-01  0.164992189318E-01
  0.181051005228E-01  0.198631963336E-01  0.217872336418E-01  0.238920570496E-01  0.261936982322E-01
  0.287094460780E-01  0.314579162975E-01  0.344591193665E-01  0.377345254147E-01  0.413071243937E-01
  0.452014795309E-01  0.494437717152E-01  0.540618320530E-01  0.590851593835E-01  0.645449190495E-01
  0.704739186854E-01  0.769065562164E-01  0.838787346651E-01  0.914277377508E-01  0.995920596583E-01
  0.108411181771E+00  0.117925288646E+00  0.128174915083E+00  0.139200515887E+00  0.151041949891E+00
  0.163737870052E+00  0.177325012167E+00  0.191837375915E+00  0.207305293863E+00  0.223754386771E+00
  0.241204407287E+00  0.259667979071E+00  0.279149244753E+00  0.299642444169E+00  0.321130454082E+00
  0.343583332446E+00  0.366956924039E+00  0.391191600163E+00  0.416211222704E+00  0.441922441828E+00
  0.468214456120E+00  0.494959382863E+00  0.522013402691E+00  0.549218854539E+00  0.576407460569E+00
  0.603404852318E+00  0.630036543780E+00  0.656135448321E+00  0.681550957422E+00  0.706159482842E+00
  0.729876202434E+00  0.752667537157E+00  0.774563618579E+00  0.795669682485E+00  0.816174951863E+00
  0.836357168276E+00  0.856580524839E+00  0.877284394955E+00  0.898960008250E+00  0.922112193520E+00
  0.947203607396E+00  0.974579638796E+00  0.100438275338E+01  0.103670808048E+01  0.107179653656E+01
  0.110993541114E+01  0.115144339359E+01  0.000000000000E+00  0.000000000000E+00  0.000000000000E+00
  0.000000000000E+00  0.000000000000E+00  0.000000000000E+00  0.000000000000E+00  0.000000000000E+00
  0.000000000000E+00  0.000000000000E+00  0.000000000000E+00  0.000000000000E+00  0.000000000000E+00
  0.000000000000E+00  0.000000000000E+00  0.000000000000E+00  0.000000000000E+00  0.000000000000E+00
  0.000000000000E+00  0.000000000000E+00  0.000000000000E+00  0.000000000000E+00  0.000000000000E+00
  0.000000000000E+00  0.000000000000E+00  0.000000000000E+00  0.000000000000E+00  0.000000000000E+00
  0.000000000000E+00  0.000000000000E+00  0.000000000000E+00  0.000000000000E+00  0.000000000000E+00
  0.000000000000E+00  0.000000000000E+00  0.000000000000E+00
 ae wavefunction
  0.187143606365E-10  0.205125383595E-10  0.224625883681E-10  0.245790164114E-10  0.268775873171E-10
  0.293754458499E-10  0.320912482732E-10  0.350453057774E-10  0.382597410179E-10  0.417586588589E-10
  0.455683328764E-10  0.497174088791E-10  0.542371274976E-10  0.591615671439E-10  0.645279097924E-10
  0.703767313512E-10  0.767523194165E-10  0.837030205160E-10  0.912816201595E-10  0.995457586159E-10
  0.108558385621E-09  0.118388258445E-09  0.129110486247E-09  0.140807127165E-09  0.153567840478E-09
  0.167490602046E-09  0.182682486587E-09  0.199260525319E-09  0.217352644575E-09  0.237098694186E-09
  0.258651574186E-09  0.282178468811E-09  0.307862198946E-09  0.335902703845E-09  0.366518665004E-09
  0.399949285876E-09  0.436456242588E-09  0.476325822216E-09  0.519871266941E-09  0.567435344060E-09
  0.619393163887E-09  0.676155269683E-09  0.738171026157E-09  0.805932335701E-09  0.879977714299E-09
  0.960896762394E-09  0.104933506913E-08  0.114599959271E-08  0.125166456300E-08  0.136717795802E-08
  0.149346861041E-08  0.163155400533E-08  0.178254883836E-08  0.194767440696E-08  0.212826891922E-08
  0.232579880515E-08  0.254187114045E-08  0.277824727386E-08  0.303685779505E-08  0.331981896396E-08
  0.362945074823E-08  0.396829662836E-08  0.433914534190E-08  0.474505475876E-08  0.518937810295E-08
  0.567579274044E-08  0.620833179910E-08  0.679141888893E-08  0.742990623463E-08  0.812911655959E-08
  0.889488908099E-08  0.973363003025E-08  0.106523681477E-07  0.116588156285E-07  0.127614350755E-07
  0.139695130359E-07  0.152932407851E-07  0.167438030617E-07  0.183334755430E-07  0.200757319236E-07
  0.219853615491E-07  0.240785986300E-07  0.263732642011E-07  0.288889220631E-07  0.316470500992E-07
  0.346712284729E-07  0.379873463779E-07  0.416238291653E-07  0.456118878556E-07  0.499857932443E-07
  0.547831770160E-07  0.600453625302E-07  0.658177282202E-07  0.721501067398E-07  0.790972234947E-07
  0.867191783100E-07  0.950819745571E-07  0.104258100348E-06  0.114327166941E-06  0.125376609972E-06
  0.137502459645E-06  0.150810186673E-06  0.165415631382E-06  0.181446024100E-06  0.199041105811E-06
  0.218354358810E-06  0.239554358185E-06  0.262826255882E-06  0.288373410263E-06  0.316419175414E-06
  0.347208865725E-06  0.381011912782E-06  0.418124233321E-06  0.458870828715E-06  0.503608638500E-06
  0.552729672535E-06  0.606664448829E-06  0.665885766575E-06  0.730912846830E-06  0.802315876295E-06
  0.880720993098E-06  0.966815757117E-06  0.106135515147E-05  0.116516816615E-05  0.127916501972E-05
  0.140434508006E-05  0.154180555105E-05  0.169275099844E-05  0.185850379463E-05  0.204051557004E-05
  0.224037976653E-05  0.245984539752E-05  0.270083212856E-05  0.296544680379E-05  0.325600155378E-05
  0.357503363388E-05  0.392532715561E-05  0.430993688767E-05  0.473221432073E-05  0.519583620609E-05
  0.570483579872E-05  0.626363705478E-05  0.687709205726E-05  0.755052196661E-05  0.828976182072E-05
  0.910120953660E-05  0.999187949750E-05  0.109694611426E-04  0.120423830130E-04  0.132198827472E-04
  0.145120835613E-04  0.159300777956E-04  0.174860181585E-04  0.191932173529E-04  0.210662568260E-04
  0.231211054481E-04  0.253752489909E-04  0.278478313467E-04  0.305598085109E-04  0.335341164280E-04
  0.367958538924E-04  0.403724817909E-04  0.442940400727E-04  0.485933839436E-04  0.533064408939E-04
  0.584724902951E-04  0.641344674295E-04  0.703392939566E-04  0.771382369667E-04  0.845872989294E-04
  0.927476410076E-04  0.101686042383E-03  0.111475398419E-03  0.122195260683E-03  0.133932422050E-03
  0.146781550307E-03  0.160845873920E-03  0.176237923833E-03  0.193080335402E-03  0.211506714821E-03
  0.231662574638E-03  0.253706343204E-03  0.277810453165E-03  0.304162514367E-03  0.332966576785E-03
  0.364444489370E-03  0.398837360927E-03  0.436407129427E-03  0.477438246335E-03  0.522239482812E-03
  0.571145864791E-03  0.624520744165E-03  0.682758013415E-03  0.746284471155E-03  0.815562346125E-03
  0.891091987183E-03  0.973414726820E-03  0.106311592559E-02  0.116082820474E-02  0.126723487388E-02
  0.138307356052E-02  0.150914004738E-02  0.164629232312E-02  0.179545485139E-02  0.195762306202E-02
  0.213386806742E-02  0.232534160574E-02  0.253328121142E-02  0.275901561153E-02  0.300397034522E-02
  0.326967360089E-02  0.355776226387E-02  0.386998816468E-02  0.420822451515E-02  0.457447251675E-02
  0.497086812194E-02  0.539968892622E-02  0.586336116445E-02  0.636446678169E-02  0.690575054459E-02
  0.749012715630E-02  0.812068833409E-02  0.880070980632E-02  0.953365818315E-02  0.103231976531E-01
  0.111731964553E-01  0.120877330734E-01  0.130711020869E-01  0.141278196028E-01  0.152626281545E-01
  0.164805009158E-01  0.177866450062E-01  0.191865035927E-01  0.206857564190E-01  0.222903183548E-01
  0.240063355814E-01  0.258401791341E-01  0.277984357106E-01  0.298878958940E-01  0.321155401765E-01
  0.344885233386E-01  0.370141577299E-01  0.396998958061E-01  0.425533118631E-01  0.455820825232E-01
  0.487939652590E-01  0.521967742895E-01  0.557983534170E-01  0.596065456583E-01  0.636291597288E-01
  0.678739334789E-01  0.723484943552E-01  0.770603168743E-01  0.820166770281E-01  0.872246034988E-01
  0.926908256237E-01  0.984217180604E-01  0.104423242238E+00  0.110700884768E+00  0.117259593156E+00
  0.124103709284E+00  0.131236901355E+00  0.138662095132E+00  0.146381405622E+00  0.154396070416E+00
  0.162706386238E+00  0.171311650288E+00  0.180210108033E+00  0.189398908942E+00  0.198874071384E+00
  0.208630457214E+00  0.218661755840E+00  0.228960476461E+00  0.239517946475E+00  0.250324313847E+00
  0.261368552910E+00  0.272638477474E+00  0.284120774102E+00  0.295801083126E+00  0.307664175416E+00
  0.319694294345E+00  0.331875737403E+00  0.344193696404E+00  0.356635185496E+00  0.369189518269E+00
  0.381847424922E+00  0.394598087018E+00  0.407424682297E+00  0.420300966022E+00  0.433191796880E+00
  0.446057660582E+00  0.458859808822E+00  0.471563017634E+00  0.484135935065E+00  0.496550464137E+00
  0.508781215824E+00  0.520805358002E+00  0.532602835750E+00  0.544156833986E+00  0.555454340539E+00
  0.566486692396E+00  0.577250028383E+00  0.587745615153E+00  0.597980045353E+00  0.607965326409E+00
  0.617718886690E+00  0.627263526651E+00  0.636627341601E+00  0.645843639017E+00  0.654950871095E+00
  0.663992600361E+00  0.673017510867E+00  0.682079476361E+00  0.691237686579E+00  0.700556829244E+00
  0.710107312131E+00  0.719965500524E+00  0.730213932113E+00  0.740941463701E+00  0.752243299728E+00
  0.764220859830E+00  0.776981462674E+00  0.790637836997E+00  0.805307512100E+00  0.821112189013E+00
  0.838177226732E+00  0.856631404128E+00  0.876607125738E+00  0.898241249258E+00  0.921676747332E+00
  0.947065500202E+00  0.974572627356E+00  0.100438275338E+01  0.103670808048E+01  0.107179653656E+01
  0.110993541114E+01  0.115144339359E+01  0.000000000000E+00  0.000000000000E+00  0.000000000000E+00
  0.000000000000E+00  0.000000000000E+00  0.000000000000E+00  0.000000000000E+00  0.000000000000E+00
  0.000000000000E+00  0.000000000000E+00  0.000000000000E+00  0.000000000000E+00  0.000000000000E+00
  0.000000000000E+00  0.000000000000E+00  0.000000000000E+00  0.000000000000E+00  0.000000000000E+00
  0.000000000000E+00  0.000000000000E+00  0.000000000000E+00  0.000000000000E+00  0.000000000000E+00
  0.000000000000E+00  0.000000000000E+00  0.000000000000E+00  0.000000000000E+00  0.000000000000E+00
  0.000000000000E+00  0.000000000000E+00  0.000000000000E+00  0.000000000000E+00  0.000000000000E+00
  0.000000000000E+00  0.000000000000E+00  0.000000000000E+00
 End of Dataset
  PAW_PBE Na_pv 19Sep2006                
   7.00000000000000     
 parameters from PSCTR are:
   VRHFIN =Na: p6s1
   LEXCH  = PE
   EATOM  =   766.0439 eV,   56.3026 Ry

   TITEL  = PAW_PBE Na_pv 19Sep2006
   LULTRA =        F    use ultrasoft PP ?
   IUNSCR =        1    unscreen: 0-lin 1-nonlin 2-no
   RPACOR =    1.800    partial core radius
   POMASS =   22.990; ZVAL   =    7.000    mass and valenz
   RCORE  =    2.200    outmost cutoff radius
   RWIGS  =    2.200; RWIGS  =    1.164    wigner-seitz radius (au A)
   ENMAX  =  259.561; ENMIN  =  194.671 eV
   ICORE  =        2    local potential
   LCOR   =        T    correct aug charges
   LPAW   =        T    paw PP
   EAUG   =  368.056
   DEXC   =    0.000
   RMAX   =    2.245    core radius for proj-oper
   RAUG   =    1.300    factor for augmentation sphere
   RDEP   =    2.259    radius for radial grids
   RDEPT  =    1.738    core radius for aug-charge
 
   Atomic configuration
    5 entries
     n  l   j            E        occ.
     1  0  0.50     -1033.6933   2.0000
     2  0  0.50       -56.7526   2.0000
     2  1  1.50       -28.6721   6.0000
     3  0  0.50        -2.7440   1.0000
     3  2  1.50        -1.3606   0.0000
   Description
     l       E           TYP  RCUT    TYP  RCUT
     1    -28.6720912     23  2.000
     1      6.8029130     23  2.000
     0     -2.7439560     23  2.200
     0     34.0145650     23  2.200
     2     -1.3605826     23  2.200
   Error from kinetic energy argument (eV)
   NDATA  =      100
   STEP   =   20.000   1.050
  66.1      65.3      64.8      63.9      63.4      62.4      61.3      60.7
  59.5      58.2      57.5      56.2      54.7      53.2      51.7      50.1
  48.4      46.8      45.1      42.5      40.8      39.0      36.4      34.7
  33.0      30.5      28.0      26.4      24.1      21.9      19.7      17.7
  15.9      14.1      12.5      11.0      9.17      7.95      6.51      5.57
  4.47      3.54      2.76      2.13      1.61      1.20     0.876     0.575
 0.401     0.247     0.147     0.953E-01 0.556E-01 0.344E-01 0.234E-01 0.205E-01
 0.199E-01 0.199E-01 0.191E-01 0.172E-01 0.145E-01 0.115E-01 0.856E-02 0.573E-02
 0.397E-02 0.269E-02 0.208E-02 0.187E-02 0.184E-02 0.181E-02 0.167E-02 0.140E-02
 0.108E-02 0.780E-03 0.528E-03 0.402E-03 0.347E-03 0.338E-03 0.329E-03 0.298E-03
 0.239E-03 0.174E-03 0.123E-03 0.944E-04 0.871E-04 0.860E-04 0.793E-04 0.633E-04
 0.452E-04 0.328E-04 0.281E-04 0.278E-04 0.258E-04 0.208E-04 0.148E-04 0.113E-04
 0.106E-04 0.104E-04 0.864E-05 0.636E-05
END of PSCTR-controll parameters
 local part
   85.0376694860515     
  0.43557197E+02  0.43556614E+02  0.43547445E+02  0.43532185E+02  0.43510864E+02
  0.43483521E+02  0.43450205E+02  0.43410969E+02  0.43365867E+02  0.43314959E+02
  0.43258303E+02  0.43195955E+02  0.43127975E+02  0.43054418E+02  0.42975344E+02
  0.42890811E+02  0.42800880E+02  0.42705612E+02  0.42605071E+02  0.42499320E+02
  0.42388424E+02  0.42272444E+02  0.42151439E+02  0.42025464E+02  0.41894568E+02
  0.41758793E+02  0.41618176E+02  0.41472744E+02  0.41322519E+02  0.41167513E+02
  0.41007732E+02  0.40843173E+02  0.40673829E+02  0.40499681E+02  0.40320705E+02
  0.40136869E+02  0.39948134E+02  0.39754450E+02  0.39555763E+02  0.39352010E+02
  0.39143122E+02  0.38929022E+02  0.38709632E+02  0.38484865E+02  0.38254634E+02
  0.38018849E+02  0.37777419E+02  0.37530251E+02  0.37277257E+02  0.37018346E+02
  0.36753433E+02  0.36482437E+02  0.36205280E+02  0.35921892E+02  0.35632211E+02
  0.35336182E+02  0.35033764E+02  0.34724924E+02  0.34409643E+02  0.34087916E+02
  0.33759753E+02  0.33425179E+02  0.33084236E+02  0.32736984E+02  0.32383500E+02
  0.32023881E+02  0.31658241E+02  0.31286715E+02  0.30909460E+02  0.30526651E+02
  0.30138483E+02  0.29745175E+02  0.29346964E+02  0.28944106E+02  0.28536881E+02
  0.28125584E+02  0.27710532E+02  0.27292057E+02  0.26870509E+02  0.26446256E+02
  0.26019678E+02  0.25591171E+02  0.25161142E+02  0.24730011E+02  0.24298207E+02
  0.23866167E+02  0.23434335E+02  0.23003162E+02  0.22573100E+02  0.22144602E+02
  0.21718125E+02  0.21294120E+02  0.20873035E+02  0.20455315E+02  0.20041394E+02
  0.19631702E+02  0.19226654E+02  0.18826656E+02  0.18432097E+02  0.18043354E+02
  0.17660786E+02  0.17284732E+02  0.16915513E+02  0.16553431E+02  0.16198761E+02
  0.15851761E+02  0.15512662E+02  0.15181670E+02  0.14858967E+02  0.14544711E+02
  0.14239031E+02  0.13942032E+02  0.13653792E+02  0.13374363E+02  0.13103770E+02
  0.12842012E+02  0.12589065E+02  0.12344876E+02  0.12109371E+02  0.11882450E+02
  0.11663993E+02  0.11453856E+02  0.11251875E+02  0.11057867E+02  0.10871631E+02
  0.10692948E+02  0.10521584E+02  0.10357291E+02  0.10199809E+02  0.10048866E+02
  0.99041797E+01  0.97654616E+01  0.96324155E+01  0.95047408E+01  0.93821334E+01
  0.92642877E+01  0.91508978E+01  0.90416593E+01  0.89362703E+01  0.88344331E+01
  0.87358553E+01  0.86402514E+01  0.85473436E+01  0.84568631E+01  0.83685511E+01
  0.82821597E+01  0.81974531E+01  0.81142078E+01  0.80322137E+01  0.79512747E+01
  0.78712085E+01  0.77918480E+01  0.77130405E+01  0.76346486E+01  0.75565498E+01
  0.74786369E+01  0.74008172E+01  0.73230132E+01  0.72451614E+01  0.71672127E+01
  0.70891313E+01  0.70108947E+01  0.69324926E+01  0.68539268E+01  0.67752100E+01
  0.66963652E+01  0.66174250E+01  0.65384306E+01  0.64594311E+01  0.63804823E+01
  0.63016464E+01  0.62229904E+01  0.61445858E+01  0.60665075E+01  0.59888326E+01
  0.59116402E+01  0.58350100E+01  0.57590216E+01  0.56837540E+01  0.56092844E+01
  0.55356879E+01  0.54630367E+01  0.53913994E+01  0.53208407E+01  0.52514208E+01
  0.51831950E+01  0.51162131E+01  0.50505197E+01  0.49861531E+01  0.49231460E+01
  0.48615246E+01  0.48013090E+01  0.47425130E+01  0.46851442E+01  0.46292039E+01
  0.45746875E+01  0.45215847E+01  0.44698797E+01  0.44195512E+01  0.43705730E+01
  0.43229145E+01  0.42765408E+01  0.42314130E+01  0.41874889E+01  0.41447234E+01
  0.41030688E+01  0.40624751E+01  0.40228911E+01  0.39842641E+01  0.39465410E+01
  0.39096681E+01  0.38735924E+01  0.38382610E+01  0.38036224E+01  0.37696264E+01
  0.37362244E+01  0.37033701E+01  0.36710193E+01  0.36391306E+01  0.36076653E+01
  0.35765880E+01  0.35458661E+01  0.35154707E+01  0.34853762E+01  0.34555603E+01
  0.34260046E+01  0.33966938E+01  0.33676163E+01  0.33387637E+01  0.33101308E+01
  0.32817157E+01  0.32535191E+01  0.32255447E+01  0.31977985E+01  0.31702890E+01
  0.31430265E+01  0.31160233E+01  0.30892930E+01  0.30628505E+01  0.30367116E+01
  0.30108929E+01  0.29854110E+01  0.29602829E+01  0.29355250E+01  0.29111536E+01
  0.28871838E+01  0.28636299E+01  0.28405050E+01  0.28178205E+01  0.27955863E+01
  0.27738105E+01  0.27524991E+01  0.27316560E+01  0.27112830E+01  0.26913794E+01
  0.26719423E+01  0.26529661E+01  0.26344432E+01  0.26163633E+01  0.25987138E+01
  0.25814800E+01  0.25646449E+01  0.25481896E+01  0.25320930E+01  0.25163325E+01
  0.25008839E+01  0.24857215E+01  0.24708184E+01  0.24561467E+01  0.24416780E+01
  0.24273829E+01  0.24132321E+01  0.23991960E+01  0.23852453E+01  0.23713511E+01
  0.23574852E+01  0.23436204E+01  0.23297303E+01  0.23157901E+01  0.23017764E+01
  0.22876677E+01  0.22734441E+01  0.22590880E+01  0.22445838E+01  0.22299183E+01
  0.22150805E+01  0.22000622E+01  0.21848576E+01  0.21694634E+01  0.21538789E+01
  0.21381063E+01  0.21221499E+01  0.21060169E+01  0.20897167E+01  0.20732612E+01
  0.20566645E+01  0.20399427E+01  0.20231141E+01  0.20061986E+01  0.19892179E+01
  0.19721952E+01  0.19551550E+01  0.19381226E+01  0.19211244E+01  0.19041876E+01
  0.18873394E+01  0.18706076E+01  0.18540198E+01  0.18376033E+01  0.18213849E+01
  0.18053911E+01  0.17896470E+01  0.17741770E+01  0.17590041E+01  0.17441499E+01
  0.17296345E+01  0.17154761E+01  0.17016912E+01  0.16882940E+01  0.16752971E+01
  0.16627104E+01  0.16505420E+01  0.16387973E+01  0.16274797E+01  0.16165901E+01
  0.16061273E+01  0.15960874E+01  0.15864648E+01  0.15772512E+01  0.15684365E+01
  0.15600086E+01  0.15519532E+01  0.15442545E+01  0.15368948E+01  0.15298551E+01
  0.15231149E+01  0.15166524E+01  0.15104450E+01  0.15044691E+01  0.14987003E+01
  0.14931140E+01  0.14876850E+01  0.14823881E+01  0.14771981E+01  0.14720901E+01
  0.14670394E+01  0.14620219E+01  0.14570145E+01  0.14519946E+01  0.14469407E+01
  0.14418325E+01  0.14366511E+01  0.14313787E+01  0.14259992E+01  0.14204979E+01
  0.14148619E+01  0.14090798E+01  0.14031420E+01  0.13970408E+01  0.13907701E+01
  0.13843256E+01  0.13777047E+01  0.13709067E+01  0.13639324E+01  0.13567846E+01
  0.13494672E+01  0.13419861E+01  0.13343483E+01  0.13265623E+01  0.13186378E+01
  0.13105857E+01  0.13024178E+01  0.12941469E+01  0.12857865E+01  0.12773509E+01
  0.12688547E+01  0.12603131E+01  0.12517415E+01  0.12431556E+01  0.12345708E+01
  0.12260027E+01  0.12174666E+01  0.12089774E+01  0.12005497E+01  0.11921973E+01
  0.11839337E+01  0.11757715E+01  0.11677225E+01  0.11597977E+01  0.11520070E+01
  0.11443597E+01  0.11368638E+01  0.11295262E+01  0.11223531E+01  0.11153491E+01
  0.11085181E+01  0.11018628E+01  0.10953848E+01  0.10890846E+01  0.10829618E+01
  0.10770150E+01  0.10712417E+01  0.10656386E+01  0.10602018E+01  0.10549261E+01
  0.10498062E+01  0.10448356E+01  0.10400077E+01  0.10353151E+01  0.10307500E+01
  0.10263043E+01  0.10219698E+01  0.10177377E+01  0.10135994E+01  0.10095461E+01
  0.10055691E+01  0.10016598E+01  0.99780973E+00  0.99401051E+00  0.99025418E+00
  0.98653301E+00  0.98283967E+00  0.97916720E+00  0.97550908E+00  0.97185928E+00
  0.96821222E+00  0.96456286E+00  0.96090668E+00  0.95723970E+00  0.95355847E+00
  0.94986008E+00  0.94614216E+00  0.94240283E+00  0.93864073E+00  0.93485496E+00
  0.93104511E+00  0.92721114E+00  0.92335347E+00  0.91947284E+00  0.91557036E+00
  0.91164743E+00  0.90770572E+00  0.90374713E+00  0.89977375E+00  0.89578783E+00
  0.89179173E+00  0.88778788E+00  0.88377878E+00  0.87976693E+00  0.87575479E+00
  0.87174481E+00  0.86773934E+00  0.86374066E+00  0.85975092E+00  0.85577214E+00
  0.85180621E+00  0.84785485E+00  0.84391961E+00  0.84000185E+00  0.83610279E+00
  0.83222343E+00  0.82836462E+00  0.82452700E+00  0.82071110E+00  0.81691726E+00
  0.81314569E+00  0.80939648E+00  0.80566961E+00  0.80196498E+00  0.79828239E+00
  0.79462160E+00  0.79098232E+00  0.78736424E+00  0.78376706E+00  0.78019046E+00
  0.77663417E+00  0.77309798E+00  0.76958174E+00  0.76608536E+00  0.76260887E+00
  0.75915240E+00  0.75571618E+00  0.75230056E+00  0.74890603E+00  0.74553318E+00
  0.74218274E+00  0.73885554E+00  0.73555254E+00  0.73227482E+00  0.72902354E+00
  0.72579996E+00  0.72260543E+00  0.71944137E+00  0.71630923E+00  0.71321053E+00
  0.71014676E+00  0.70711944E+00  0.70413005E+00  0.70118001E+00  0.69827070E+00
  0.69540337E+00  0.69257921E+00  0.68979923E+00  0.68706434E+00  0.68437526E+00
  0.68173253E+00  0.67913652E+00  0.67658734E+00  0.67408493E+00  0.67162895E+00
  0.66921885E+00  0.66685382E+00  0.66453279E+00  0.66225443E+00  0.66001720E+00
  0.65781926E+00  0.65565859E+00  0.65353289E+00  0.65143970E+00  0.64937631E+00
  0.64733986E+00  0.64532731E+00  0.64333548E+00  0.64136106E+00  0.63940063E+00
  0.63745073E+00  0.63550782E+00  0.63356835E+00  0.63162879E+00  0.62968564E+00
  0.62773549E+00  0.62577500E+00  0.62380099E+00  0.62181041E+00  0.61980041E+00
  0.61776833E+00  0.61571175E+00  0.61362850E+00  0.61151668E+00  0.60937469E+00
  0.60720124E+00  0.60499535E+00  0.60275639E+00  0.60048408E+00  0.59817847E+00
  0.59583999E+00  0.59346941E+00  0.59106783E+00  0.58863671E+00  0.58617783E+00
  0.58369331E+00  0.58118555E+00  0.57865724E+00  0.57611135E+00  0.57355107E+00
  0.57097985E+00  0.56840130E+00  0.56581922E+00  0.56323752E+00  0.56066023E+00
  0.55809146E+00  0.55553532E+00  0.55299597E+00  0.55047749E+00  0.54798393E+00
  0.54551923E+00  0.54308719E+00  0.54069147E+00  0.53833554E+00  0.53602263E+00
  0.53375574E+00  0.53153760E+00  0.52937064E+00  0.52725699E+00  0.52519841E+00
  0.52319634E+00  0.52125186E+00  0.51936567E+00  0.51753808E+00  0.51576906E+00
  0.51405817E+00  0.51240461E+00  0.51080722E+00  0.50926445E+00  0.50777444E+00
  0.50633498E+00  0.50494354E+00  0.50359731E+00  0.50229320E+00  0.50102785E+00
  0.49979771E+00  0.49859902E+00  0.49742787E+00  0.49628021E+00  0.49515190E+00
  0.49403873E+00  0.49293646E+00  0.49184086E+00  0.49074771E+00  0.48965288E+00
  0.48855233E+00  0.48744214E+00  0.48631856E+00  0.48517802E+00  0.48401716E+00
  0.48283287E+00  0.48162231E+00  0.48038291E+00  0.47911239E+00  0.47780883E+00
  0.47647060E+00  0.47509641E+00  0.47368534E+00  0.47223680E+00  0.47075055E+00
  0.46922671E+00  0.46766574E+00  0.46606843E+00  0.46443592E+00  0.46276964E+00
  0.46107136E+00  0.45934310E+00  0.45758718E+00  0.45580613E+00  0.45400273E+00
  0.45217993E+00  0.45034088E+00  0.44848884E+00  0.44662721E+00  0.44475947E+00
  0.44288914E+00  0.44101981E+00  0.43915503E+00  0.43729835E+00  0.43545325E+00
  0.43362315E+00  0.43181132E+00  0.43002093E+00  0.42825496E+00  0.42651624E+00
  0.42480738E+00  0.42313077E+00  0.42148856E+00  0.41988265E+00  0.41831471E+00
  0.41678609E+00  0.41529791E+00  0.41385097E+00  0.41244581E+00  0.41108266E+00
  0.40976150E+00  0.40848199E+00  0.40724354E+00  0.40604530E+00  0.40488614E+00
  0.40376473E+00  0.40267949E+00  0.40162864E+00  0.40061019E+00  0.39962202E+00
  0.39866183E+00  0.39772720E+00  0.39681558E+00  0.39592436E+00  0.39505086E+00
  0.39419234E+00  0.39334605E+00  0.39250925E+00  0.39167922E+00  0.39085327E+00
  0.39002881E+00  0.38920331E+00  0.38837436E+00  0.38753967E+00  0.38669707E+00
  0.38584457E+00  0.38498032E+00  0.38410265E+00  0.38321008E+00  0.38230131E+00
  0.38137525E+00  0.38043100E+00  0.37946788E+00  0.37848539E+00  0.37748326E+00
  0.37646140E+00  0.37541993E+00  0.37435915E+00  0.37327955E+00  0.37218177E+00
  0.37106663E+00  0.36993510E+00  0.36878826E+00  0.36762736E+00  0.36645372E+00
  0.36526877E+00  0.36407404E+00  0.36287108E+00  0.36166155E+00  0.36044710E+00
  0.35922941E+00  0.35801017E+00  0.35679105E+00  0.35557371E+00  0.35435975E+00
  0.35315074E+00  0.35194815E+00  0.35075343E+00  0.34956790E+00  0.34839281E+00
  0.34722932E+00  0.34607846E+00  0.34494117E+00  0.34381825E+00  0.34271039E+00
  0.34161818E+00  0.34054206E+00  0.33948236E+00  0.33843929E+00  0.33741293E+00
  0.33640328E+00  0.33541020E+00  0.33443348E+00  0.33347279E+00  0.33252773E+00
  0.33159781E+00  0.33068247E+00  0.32978109E+00  0.32889299E+00  0.32801745E+00
  0.32715370E+00  0.32630097E+00  0.32545844E+00  0.32462531E+00  0.32380076E+00
  0.32298400E+00  0.32217423E+00  0.32137070E+00  0.32057268E+00  0.31977947E+00
  0.31899042E+00  0.31820493E+00  0.31742242E+00  0.31664240E+00  0.31586441E+00
  0.31508806E+00  0.31431303E+00  0.31353902E+00  0.31276584E+00  0.31199330E+00
  0.31122132E+00  0.31044982E+00  0.30967881E+00  0.30890831E+00  0.30813840E+00
  0.30736918E+00  0.30660078E+00  0.30583337E+00  0.30506713E+00  0.30430223E+00
  0.30353890E+00  0.30277733E+00  0.30201772E+00  0.30126026E+00  0.30050513E+00
  0.29975250E+00  0.29900250E+00  0.29825523E+00  0.29751080E+00  0.29676923E+00
  0.29603054E+00  0.29529472E+00  0.29456170E+00  0.29383140E+00  0.29310367E+00
  0.29237836E+00  0.29165526E+00  0.29093413E+00  0.29021471E+00  0.28949670E+00
  0.28877978E+00  0.28806360E+00  0.28734782E+00  0.28663206E+00  0.28591595E+00
  0.28519912E+00  0.28448121E+00  0.28376184E+00  0.28304069E+00  0.28231743E+00
  0.28159177E+00  0.28086345E+00  0.28013224E+00  0.27939795E+00  0.27866045E+00
  0.27791964E+00  0.27717548E+00  0.27642799E+00  0.27567724E+00  0.27492338E+00
  0.27416658E+00  0.27340713E+00  0.27264531E+00  0.27188153E+00  0.27111619E+00
  0.27034980E+00  0.26958290E+00  0.26881606E+00  0.26804992E+00  0.26728515E+00
  0.26652247E+00  0.26576260E+00  0.26500631E+00  0.26425436E+00  0.26350755E+00
  0.26276666E+00  0.26203247E+00  0.26130574E+00  0.26058721E+00  0.25987762E+00
  0.25917762E+00  0.25848787E+00  0.25780894E+00  0.25714139E+00  0.25648566E+00
  0.25584218E+00  0.25521128E+00  0.25459320E+00  0.25398813E+00  0.25339616E+00
  0.25281728E+00  0.25225142E+00  0.25169839E+00  0.25115794E+00  0.25062971E+00
  0.25011326E+00  0.24960807E+00  0.24911353E+00  0.24862897E+00  0.24815363E+00
  0.24768668E+00  0.24722725E+00  0.24677439E+00  0.24632712E+00  0.24588441E+00
  0.24544520E+00  0.24500841E+00  0.24457294E+00  0.24413768E+00  0.24370154E+00
  0.24326342E+00  0.24282228E+00  0.24237706E+00  0.24192678E+00  0.24147049E+00
  0.24100731E+00  0.24053639E+00  0.24005700E+00  0.23956844E+00  0.23907013E+00
  0.23856156E+00  0.23804232E+00  0.23751210E+00  0.23697069E+00  0.23641799E+00
  0.23585399E+00  0.23527880E+00  0.23469264E+00  0.23409580E+00  0.23348871E+00
  0.23287187E+00  0.23224589E+00  0.23161146E+00  0.23096936E+00  0.23032045E+00
  0.22966564E+00  0.22900595E+00  0.22834240E+00  0.22767609E+00  0.22700816E+00
  0.22633975E+00  0.22567205E+00  0.22500624E+00  0.22434349E+00  0.22368500E+00
  0.22303189E+00  0.22238531E+00  0.22174634E+00  0.22111600E+00  0.22049529E+00
  0.21988512E+00  0.21928634E+00  0.21869971E+00  0.21812591E+00  0.21756553E+00
  0.21701907E+00  0.21648693E+00  0.21596939E+00  0.21546665E+00  0.21497879E+00
  0.21450579E+00  0.21404753E+00  0.21360378E+00  0.21317420E+00  0.21275836E+00
  0.21235574E+00  0.21196572E+00  0.21158761E+00  0.21122061E+00  0.21086388E+00
  0.21051650E+00  0.21017749E+00  0.20984583E+00  0.20952046E+00  0.20920029E+00
  0.20888419E+00  0.20857105E+00  0.20825971E+00  0.20794907E+00  0.20763801E+00
  0.20732543E+00  0.20701028E+00  0.20669155E+00  0.20636826E+00  0.20603950E+00
  0.20570443E+00  0.20536227E+00  0.20501231E+00  0.20465393E+00  0.20428660E+00
  0.20390987E+00  0.20352337E+00  0.20312684E+00  0.20272012E+00  0.20230311E+00
  0.20187584E+00  0.20143841E+00  0.20099104E+00  0.20053400E+00  0.20006767E+00
  0.19959251E+00  0.19910905E+00  0.19861790E+00  0.19811972E+00  0.19761523E+00
  0.19710523E+00  0.19659052E+00  0.19607198E+00  0.19555049E+00  0.19502697E+00
  0.19450234E+00  0.19397753E+00  0.19345348E+00  0.19293112E+00  0.19241134E+00
  0.19189504E+00  0.19138306E+00  0.19087621E+00  0.19037527E+00  0.18988096E+00
  0.18939393E+00  0.18891479E+00  0.18844407E+00  0.18798226E+00  0.18752975E+00
  0.18708688E+00  0.18665389E+00  0.18623096E+00  0.18581821E+00  0.18541566E+00
  0.18502327E+00  0.18464091E+00  0.18426840E+00  0.18390548E+00  0.18355183E+00
  0.18320708E+00  0.18287079E+00  0.18254248E+00  0.18222160E+00  0.18190760E+00
  0.18159987E+00  0.18129776E+00  0.18100063E+00  0.18070779E+00  0.18041857E+00
  0.18013226E+00  0.17984819E+00  0.17956566E+00  0.17928400E+00  0.17900258E+00
  0.17872074E+00  0.17843791E+00  0.17815351E+00  0.17786701E+00  0.17757792E+00
  0.17728579E+00  0.17699023E+00  0.17669088E+00  0.17638745E+00  0.17607967E+00
 gradient corrections used for XC
           5
 core charge-density (partial)
  0.64781852E+00  0.64754751E+00  0.64673516E+00  0.64538352E+00  0.64349599E+00
  0.64107730E+00  0.63813351E+00  0.63467197E+00  0.63070128E+00  0.62623126E+00
  0.62127292E+00  0.61583837E+00  0.60994084E+00  0.60359454E+00  0.59681466E+00
  0.58961729E+00  0.58201933E+00  0.57403846E+00  0.56569305E+00  0.55700207E+00
  0.54798504E+00  0.53866196E+00  0.52905320E+00  0.51917948E+00  0.50906171E+00
  0.49872103E+00  0.48817862E+00  0.47745573E+00  0.46657353E+00  0.45555309E+00
  0.44441530E+00  0.43318083E+00  0.42187001E+00  0.41050285E+00  0.39909895E+00
  0.38767742E+00  0.37625691E+00  0.36485548E+00  0.35349064E+00  0.34217928E+00
  0.33093760E+00  0.31978117E+00  0.30872482E+00  0.29778268E+00  0.28696813E+00
  0.27629381E+00  0.26577158E+00  0.25541254E+00  0.24522701E+00  0.23522456E+00
  0.22541396E+00  0.21580322E+00  0.20639962E+00  0.19720965E+00  0.18823910E+00
  0.17949302E+00  0.17097575E+00  0.16269097E+00  0.15464166E+00  0.14683018E+00
  0.13925824E+00  0.13192697E+00  0.12483690E+00  0.11798804E+00  0.11137985E+00
  0.10501128E+00  0.98880840E-01  0.92986556E-01  0.87326053E-01  0.81896557E-01
  0.76694928E-01  0.71717683E-01  0.66961026E-01  0.62420871E-01  0.58092871E-01
  0.53972439E-01  0.50054775E-01  0.46334889E-01  0.42807626E-01  0.39467686E-01
  0.36309644E-01  0.33327979E-01  0.30517083E-01  0.27871289E-01  0.25384886E-01
  0.23052136E-01  0.20867292E-01  0.18824614E-01  0.16918382E-01  0.15142911E-01
  0.13492564E-01  0.11961766E-01  0.10545012E-01  0.92368791E-02  0.80320381E-02
  0.69252587E-02  0.59114197E-02  0.49855159E-02  0.41426643E-02  0.33781100E-02
  0.26872310E-02  0.20655428E-02  0.15087019E-02  0.10125088E-02  0.57291017E-03
  0.18600128E-03 -0.15197330E-03 -0.44461871E-03 -0.69538958E-03 -0.90759024E-03
 -0.10843754E-02 -0.12287512E-02 -0.13435766E-02 -0.14315653E-02 -0.14952878E-02
 -0.15371738E-02 -0.15595149E-02 -0.15644678E-02 -0.15540570E-02 -0.15301787E-02
 -0.14946042E-02 -0.14489832E-02 -0.13948485E-02 -0.13336191E-02 -0.12666050E-02
 -0.11950109E-02 -0.11199404E-02 -0.10424007E-02 -0.96330613E-03 -0.88348325E-03
 -0.80367454E-03 -0.72454290E-03 -0.64667581E-03 -0.57058957E-03 -0.49673338E-03
 -0.42549342E-03 -0.35719685E-03 -0.29211570E-03 -0.23047070E-03 -0.17243502E-03
 -0.11813782E-03 -0.67667850E-04 -0.21076746E-04  0.21617637E-04  0.60428095E-04
  0.95395050E-04  0.12658366E-03  0.15408104E-03  0.17799363E-03  0.19844472E-03
  0.21557203E-03  0.22952551E-03  0.24046520E-03  0.24855928E-03  0.25398221E-03
  0.25691299E-03  0.25753358E-03  0.25602742E-03  0.25257805E-03  0.24736791E-03
  0.24057715E-03  0.23238268E-03  0.22295718E-03  0.21246836E-03  0.20107818E-03
  0.18894227E-03  0.17620937E-03  0.16302092E-03  0.14951064E-03  0.13580429E-03
  0.12201941E-03  0.10826520E-03  0.94642421E-04  0.81243353E-04  0.68151844E-04
  0.55443369E-04  0.43185158E-04  0.31436357E-04  0.20248233E-04  0.96644034E-05
 -0.27889164E-06 -0.95525026E-05 -0.18134053E-04 -0.26007608E-04 -0.33163319E-04
 -0.39597066E-04 -0.45310082E-04 -0.50308572E-04 -0.54603327E-04 -0.58209342E-04
 -0.61145424E-04 -0.63433812E-04 -0.65099794E-04 -0.66171340E-04 -0.66678733E-04
 -0.66654216E-04 -0.66131651E-04 -0.65146184E-04 -0.63733933E-04 -0.61931681E-04
 -0.59776593E-04 -0.57305943E-04 -0.54556860E-04 -0.51566092E-04 -0.48369785E-04
 -0.45003283E-04 -0.41500943E-04 -0.37895967E-04 -0.34220255E-04 -0.30504274E-04
 -0.26776941E-04 -0.23065529E-04 -0.19395581E-04 -0.15790850E-04 -0.12273243E-04
 -0.88627915E-05 -0.55776243E-05 -0.24339623E-05  0.55387805E-06  0.33734687E-05
  0.60142432E-05  0.84674593E-05  0.10726152E-04  0.12785080E-04  0.14640661E-04
  0.16290901E-04  0.17735321E-04  0.18974876E-04  0.20011864E-04  0.20849843E-04
  0.21493535E-04  0.21948731E-04  0.22222196E-04  0.22321571E-04  0.22255274E-04
  0.22032407E-04  0.21662655E-04  0.21156192E-04  0.20523592E-04  0.19775735E-04
  0.18923717E-04  0.17978773E-04  0.16952188E-04  0.15855227E-04  0.14699056E-04
  0.13494679E-04  0.12252869E-04  0.10984114E-04  0.96985573E-05  0.84059533E-05
  0.71156192E-05  0.58363974E-05  0.45766206E-05  0.33440825E-05  0.21460128E-05
  0.98905817E-06 -0.12073363E-06 -0.11779238E-05 -0.21776889E-05 -0.31158228E-05
 -0.39887343E-05 -0.47934417E-05 -0.55275632E-05 -0.61893038E-05 -0.67774396E-05
 -0.72912990E-05 -0.77307410E-05 -0.80961314E-05 -0.83883173E-05 -0.86085985E-05
 -0.87586990E-05 -0.88407354E-05 -0.88571858E-05 -0.88108566E-05 -0.87048498E-05
 -0.85425285E-05 -0.83274841E-05 -0.80635020E-05 -0.77545282E-05 -0.74046365E-05
 -0.70179961E-05 -0.65988401E-05 -0.61514352E-05 -0.56800520E-05 -0.51889371E-05
 -0.46822863E-05 -0.41642195E-05 -0.36387569E-05 -0.31097968E-05 -0.25810958E-05
 -0.20562498E-05 -0.15386778E-05 -0.10316065E-05 -0.53805774E-06 -0.60837091E-07
  0.39747530E-06  0.83453223E-06  0.12482251E-05  0.16366878E-05  0.19982989E-05
  0.23316824E-05  0.26357062E-05  0.29094802E-05  0.31523515E-05  0.33638999E-05
  0.35439307E-05  0.36924669E-05  0.38097407E-05  0.38961834E-05  0.39524144E-05
  0.39792302E-05  0.39775921E-05  0.39486129E-05  0.38935444E-05  0.38137633E-05
  0.37107576E-05  0.35861125E-05  0.34414961E-05  0.32786455E-05  0.30993528E-05
  0.29054512E-05  0.26988016E-05  0.24812791E-05  0.22547605E-05  0.20211119E-05
  0.17821769E-05  0.15397653E-05  0.12956427E-05  0.10515207E-05  0.80904725E-06
  0.56979894E-06  0.33527283E-06  0.10687979E-06 -0.11406158E-06 -0.32633015E-06
 -0.52880670E-06 -0.72047753E-06 -0.90043722E-06 -0.10678907E-05 -0.12221543E-05
 -0.13626564E-05 -0.14889370E-05 -0.16006470E-05 -0.16975460E-05 -0.17795006E-05
 -0.18464812E-05 -0.18985583E-05 -0.19358992E-05 -0.19587627E-05 -0.19674946E-05
 -0.19625228E-05 -0.19443508E-05 -0.19135524E-05 -0.18707654E-05 -0.18166851E-05
 -0.17520579E-05 -0.16776748E-05 -0.15943643E-05 -0.15029862E-05 -0.14044244E-05
 -0.12995809E-05 -0.11893689E-05 -0.10747065E-05 -0.95651056E-06 -0.83569099E-06
 -0.71314469E-06 -0.58975031E-06 -0.46636309E-06 -0.34381008E-06 -0.22288561E-06
 -0.10434721E-06  0.11088105E-07  0.12274722E-06  0.23000389E-06  0.33228125E-06
  0.42905405E-06  0.51985036E-06  0.60425293E-06  0.68190021E-06  0.75248683E-06
  0.81576388E-06  0.87153868E-06  0.91967427E-06  0.96008851E-06  0.99275291E-06
  0.10176911E-05  0.10349770E-05  0.10447329E-05  0.10471268E-05  0.10423705E-05
  0.10307161E-05  0.10124537E-05  0.98790800E-06  0.95743525E-06  0.92141989E-06
  0.88027121E-06  0.83441988E-06  0.78431452E-06  0.73041819E-06  0.67320496E-06
  0.61315644E-06  0.55075845E-06  0.48649770E-06  0.42085857E-06  0.35432007E-06
  0.28735281E-06  0.22041625E-06  0.15395595E-06  0.88401151E-07  0.24162426E-07
 -0.38370450E-07 -0.98830421E-07 -0.15687488E-06 -0.21218718E-06 -0.26447795E-06
 -0.31348618E-06 -0.35898009E-06 -0.40075779E-06 -0.43864775E-06 -0.47250903E-06
 -0.50223131E-06 -0.52773471E-06 -0.54896949E-06 -0.56591545E-06 -0.57858125E-06
 -0.58700352E-06 -0.59124584E-06 -0.59139754E-06 -0.58757237E-06 -0.57990713E-06
 -0.56856006E-06 -0.55370924E-06 -0.53555087E-06 -0.51429747E-06 -0.49017603E-06
 -0.46342617E-06 -0.43429817E-06 -0.40305106E-06 -0.36995072E-06 -0.33526791E-06
 -0.29927638E-06 -0.26225103E-06 -0.22446605E-06 -0.18619317E-06 -0.14769995E-06
 -0.10924814E-06 -0.71092146E-07 -0.33477548E-07  0.33602435E-08  0.39197262E-07
  0.73822134E-07  0.10703712E-06  0.13865904E-06  0.16852007E-06  0.19646847E-06
  0.22236907E-06  0.24610378E-06  0.26757188E-06  0.28669022E-06  0.30339331E-06
  0.31763326E-06  0.32937964E-06  0.33861925E-06  0.34535572E-06  0.34960904E-06
  0.35141506E-06  0.35082477E-06  0.34790364E-06  0.34273077E-06  0.33539808E-06
  0.32600929E-06  0.31467905E-06  0.30153181E-06  0.28670084E-06  0.27032708E-06
  0.25255805E-06  0.23354672E-06  0.21345035E-06  0.19242941E-06  0.17064638E-06
  0.14826469E-06  0.12544762E-06  0.10235724E-06  0.79153358E-07  0.55992561E-07
  0.33027267E-07  0.10404831E-07 -0.11733291E-07 -0.33252317E-07 -0.54024855E-07
 -0.73931550E-07 -0.92861669E-07 -0.11071361E-06 -0.12739533E-06 -0.14282475E-06
 -0.15692999E-06 -0.16964963E-06 -0.18093286E-06 -0.19073952E-06 -0.19904014E-06
 -0.20581586E-06 -0.21105830E-06 -0.21476933E-06 -0.21696089E-06 -0.21765458E-06
 -0.21688135E-06 -0.21468107E-06 -0.21110201E-06 -0.20620039E-06 -0.20003977E-06
 -0.19269050E-06 -0.18422909E-06 -0.17473754E-06 -0.16430271E-06 -0.15301563E-06
 -0.14097081E-06 -0.12826551E-06 -0.11499909E-06 -0.10127230E-06 -0.87186542E-07
 -0.72843269E-07 -0.58343266E-07 -0.43786030E-07 -0.29269148E-07 -0.14887699E-07
 -0.73369745E-09  0.13104441E-07  0.26542393E-07  0.39500385E-07  0.51903608E-07
  0.63682595E-07  0.74773554E-07  0.85118652E-07  0.94666262E-07  0.10337116E-06
  0.11119466E-06  0.11810475E-06  0.12407613E-06  0.12909023E-06  0.13313518E-06
  0.13620573E-06  0.13830317E-06  0.13943512E-06  0.13961542E-06  0.13886380E-06
  0.13720571E-06  0.13467199E-06  0.13129854E-06  0.12712599E-06  0.12219934E-06
  0.11656755E-06  0.11028314E-06  0.10340178E-06  0.95981852E-07  0.88083993E-07
  0.79770680E-07  0.71105763E-07  0.62154024E-07  0.52980732E-07  0.43651212E-07
  0.34230409E-07  0.24782478E-07  0.15370382E-07  0.60555048E-08 -0.31027164E-08
 -0.12047135E-07 -0.20723223E-07 -0.29079366E-07 -0.37067144E-07 -0.44641576E-07
 -0.51761342E-07 -0.58388978E-07 -0.64491034E-07 -0.70038213E-07 -0.75005473E-07
 -0.79372101E-07 -0.83121760E-07 -0.86242501E-07 -0.88726753E-07 -0.90571278E-07
 -0.91777105E-07 -0.92349433E-07 -0.92297514E-07 -0.91634504E-07 -0.90377299E-07
 -0.88546352E-07 -0.86165458E-07 -0.83261536E-07 -0.79864390E-07 -0.76006451E-07
 -0.71722514E-07 -0.67049465E-07 -0.62025995E-07 -0.56692309E-07 -0.51089839E-07
 -0.45260943E-07 -0.39248611E-07 -0.33096173E-07 -0.26847011E-07 -0.20544269E-07
 -0.14230581E-07 -0.79478014E-08 -0.17367479E-08  0.43630455E-08  0.10313560E-07
  0.16078512E-07  0.21623551E-07  0.26916450E-07  0.31927274E-07  0.36628526E-07
  0.40995283E-07  0.45005305E-07  0.48639128E-07  0.51880139E-07  0.54714625E-07
  0.57131808E-07  0.59123860E-07  0.60685891E-07  0.61815929E-07  0.62514873E-07
  0.62786434E-07  0.62637054E-07  0.62075814E-07  0.61114320E-07  0.59766581E-07
  0.58048872E-07  0.55979582E-07  0.53579054E-07  0.50869417E-07  0.47874405E-07
  0.44619171E-07  0.41130098E-07  0.37434603E-07  0.33560935E-07  0.29537979E-07
  0.25395054E-07  0.21161711E-07  0.16867541E-07  0.12541975E-07  0.82140985E-08
  0.39124668E-08 -0.33507064E-09 -0.45015397E-08 -0.85610009E-08 -0.12488700E-07
 -0.16261206E-07 -0.19856542E-07 -0.23254300E-07 -0.26435745E-07 -0.29383907E-07
 -0.32083661E-07 -0.34521785E-07 -0.36687021E-07 -0.38570105E-07 -0.40163794E-07
 -0.41462874E-07 -0.42464160E-07 -0.43166477E-07 -0.43570634E-07 -0.43679377E-07
 -0.43497344E-07 -0.43030992E-07 -0.42288528E-07 -0.41279819E-07 -0.40016302E-07
 -0.38510879E-07 -0.36777803E-07 -0.34832566E-07 -0.32691775E-07 -0.30373019E-07
 -0.27894739E-07 -0.25276095E-07 -0.22536825E-07 -0.19697105E-07 -0.16777412E-07
 -0.13798385E-07 -0.10780684E-07 -0.77448581E-08 -0.47112115E-08 -0.16996760E-08
  0.12703128E-08  0.41799338E-08  0.70110925E-08  0.97465263E-08  0.12369903E-07
  0.14865909E-07  0.17220337E-07  0.19420153E-07  0.21453563E-07  0.23310073E-07
  0.24980526E-07  0.26457148E-07  0.27733569E-07  0.28804840E-07  0.29667446E-07
  0.30319297E-07  0.30759723E-07  0.30989452E-07  0.31010579E-07  0.30826532E-07
  0.30442026E-07  0.29863008E-07  0.29096601E-07  0.28151032E-07  0.27035566E-07
  0.25760423E-07  0.24336696E-07  0.22776263E-07  0.21091702E-07  0.19296186E-07
  0.17403397E-07  0.15427424E-07  0.13382664E-07  0.11283722E-07  0.91453141E-08
  0.69821686E-08  0.48089296E-08  0.26400625E-08  0.48976285E-09 -0.16281319E-08
 -0.37002269E-08 -0.57136503E-08 -0.76561280E-08 -0.95160547E-08 -0.11282558E-07
 -0.12945557E-07 -0.14495817E-07 -0.15924993E-07 -0.17225672E-07 -0.18391405E-07
 -0.19416732E-07 -0.20297205E-07 -0.21029396E-07 -0.21610908E-07 -0.22040367E-07
 -0.22317422E-07 -0.22442724E-07 -0.22417910E-07 -0.22245572E-07 -0.21929229E-07
 -0.21473288E-07 -0.20882996E-07 -0.20164400E-07 -0.19324288E-07 -0.18370137E-07
 -0.17310050E-07 -0.16152696E-07 -0.14907240E-07 -0.13583279E-07 -0.12190774E-07
 -0.10739971E-07 -0.92413390E-08 -0.77054921E-08 -0.61431199E-08 -0.45649161E-08
 -0.29815086E-08 -0.14033911E-08  0.15914324E-09  0.16960659E-08  0.31976746E-08
  0.46546512E-08  0.60581165E-08  0.73996819E-08  0.86714959E-08  0.98662870E-08
  0.10977403E-07  0.11998842E-07  0.12925288E-07  0.13752125E-07  0.14475465E-07
  0.15092158E-07  0.15599802E-07  0.15996747E-07  0.16282094E-07  0.16455689E-07
  0.16518113E-07  0.16470668E-07  0.16315353E-07  0.16054846E-07  0.15692472E-07
  0.15232173E-07  0.14678472E-07  0.14036436E-07  0.13311633E-07  0.12510087E-07
  0.11638235E-07  0.10702877E-07  0.97111230E-08  0.86703481E-08  0.75881350E-08
  0.64722232E-08  0.53304565E-08  0.41707292E-08  0.30009345E-08  0.18289123E-08
  0.66239944E-09 -0.49101982E-09 -0.16239608E-08 -0.27292839E-08 -0.38001373E-08
 -0.48299975E-08 -0.58127072E-08 -0.67425100E-08 -0.76140819E-08 -0.84225597E-08
 -0.91635661E-08 -0.98332309E-08 -0.10428209E-07 -0.10945693E-07 -0.11383428E-07
 -0.11739711E-07 -0.12013400E-07 -0.12203913E-07 -0.12311218E-07 -0.12335830E-07
 -0.12278800E-07 -0.12141697E-07 -0.11926592E-07 -0.11636037E-07 -0.11273041E-07
 -0.10841045E-07 -0.10343890E-07 -0.97857905E-08 -0.91712969E-08 -0.85052644E-08
 -0.77928152E-08 -0.70393016E-08 -0.62502675E-08 -0.54314096E-08 -0.45885378E-08
 -0.37275355E-08 -0.28543206E-08 -0.19748056E-08 -0.10948596E-08 -0.22027030E-09
  0.64329261E-09  0.14903128E-08  0.23154611E-08  0.31136278E-08  0.38799528E-08
  0.46098540E-08  0.52990527E-08  0.59435983E-08  0.65398884E-08  0.70846880E-08
  0.75751454E-08  0.80088052E-08  0.83836188E-08  0.86979523E-08  0.89505910E-08
  0.91407416E-08  0.92680314E-08  0.93325049E-08  0.93346176E-08  0.92752272E-08
  0.91555826E-08  0.89773099E-08  0.87423968E-08  0.84531745E-08  0.81122976E-08
  0.77227221E-08  0.72876824E-08  0.68106657E-08  0.62953860E-08  0.57457568E-08
  0.51658624E-08  0.45599292E-08  0.39322958E-08  0.32873834E-08  0.26296653E-08
  0.19636377E-08  0.12937892E-08  0.62457200E-09 -0.39626819E-10 -0.69451304E-09
 -0.13359121E-08 -0.19597949E-08 -0.25623020E-08 -0.31397664E-08 -0.36887353E-08
 -0.42059895E-08 -0.46885610E-08 -0.51337498E-08 -0.55391369E-08 -0.59025971E-08
 -0.62223086E-08 -0.64967609E-08 -0.67247602E-08 -0.69054335E-08 -0.70382292E-08
 -0.71229173E-08 -0.71595858E-08 -0.71486363E-08 -0.70907770E-08 -0.69870142E-08
 -0.68386412E-08 -0.66472267E-08 -0.64146002E-08 -0.61428373E-08 -0.58342422E-08
 -0.54913298E-08 -0.51168066E-08 -0.47135504E-08 -0.42845892E-08 -0.38330793E-08
 -0.33622833E-08 -0.28755467E-08 -0.23762759E-08 -0.18679142E-08 -0.13539194E-08
 -0.83774078E-09 -0.32279664E-09  0.18754757E-09  0.69000060E-09  0.11813659E-08
  0.16585614E-08  0.21186380E-08  0.25587972E-08  0.29764076E-08  0.33690194E-08
  0.37343788E-08  0.40704397E-08  0.43753743E-08  0.46475826E-08  0.48856998E-08
  0.50886020E-08  0.52554104E-08  0.53854943E-08  0.54784717E-08  0.55342084E-08
  0.55528163E-08  0.55346488E-08  0.54802961E-08  0.53905777E-08  0.52665344E-08
  0.51094187E-08  0.49206836E-08  0.47019710E-08  0.44550982E-08  0.41820439E-08
  0.38849332E-08  0.35660220E-08  0.32276802E-08  0.28723750E-08  0.25026539E-08
  0.21211262E-08  0.17304458E-08  0.13332932E-08  0.93235742E-09  0.53031839E-09
  0.12982963E-09 -0.26649881E-09 -0.65611694E-09 -0.10365507E-08 -0.14054170E-08
 -0.17604387E-08 -0.20994576E-08 -0.24204473E-08 -0.27215248E-08 -0.30009610E-08
 -0.32571903E-08 -0.34888184E-08 -0.36946297E-08 -0.38735926E-08 -0.40248643E-08
 -0.41477940E-08 -0.42419246E-08 -0.43069932E-08 -0.43429307E-08 -0.43498597E-08
 -0.43280915E-08 -0.42781213E-08 -0.42006232E-08 -0.40964435E-08 -0.39665928E-08
 -0.38122375E-08 -0.36346903E-08 -0.34354001E-08 -0.32159401E-08 -0.29779969E-08
 -0.27233573E-08 -0.24538961E-08 -0.21715622E-08 -0.18783652E-08 -0.15763615E-08
 -0.12676402E-08 -0.95430938E-09 -0.63848155E-09 -0.32226016E-09 -0.77258216E-11
  0.30307699E-09  0.60815288E-09  0.90556801E-09  0.11934620E-08  0.14700591E-08
  0.17336791E-08  0.19827468E-08  0.22158012E-08  0.24315038E-08  0.26286457E-08
 kinetic energy density (partial)
  0.49860534E+02  0.49839837E+02  0.49777795E+02  0.49674563E+02  0.49530398E+02
  0.49345658E+02  0.49120800E+02  0.48856379E+02  0.48553044E+02  0.48211537E+02
  0.47832691E+02  0.47417421E+02  0.46966725E+02  0.46481681E+02  0.45963435E+02
  0.45413205E+02  0.44832271E+02  0.44221971E+02  0.43583696E+02  0.42918884E+02
  0.42229014E+02  0.41515604E+02  0.40780199E+02  0.40024371E+02  0.39249711E+02
  0.38457822E+02  0.37650316E+02  0.36828810E+02  0.35994915E+02  0.35150237E+02
  0.34296368E+02  0.33434884E+02  0.32567337E+02  0.31695257E+02  0.30820139E+02
  0.29943449E+02  0.29066612E+02  0.28191014E+02  0.27317997E+02  0.26448857E+02
  0.25584840E+02  0.24727143E+02  0.23876909E+02  0.23035226E+02  0.22203127E+02
  0.21381589E+02  0.20571530E+02  0.19773810E+02  0.18989229E+02  0.18218532E+02
  0.17462401E+02  0.16721464E+02  0.15996287E+02  0.15287382E+02  0.14595203E+02
  0.13920150E+02  0.13262569E+02  0.12622752E+02  0.12000940E+02  0.11397325E+02
  0.10812052E+02  0.10245216E+02  0.96968720E+01  0.91670285E+01  0.86556554E+01
  0.81626829E+01  0.76880049E+01  0.72314801E+01  0.67929348E+01  0.63721643E+01
  0.59689354E+01  0.55829882E+01  0.52140381E+01  0.48617779E+01  0.45258798E+01
  0.42059971E+01  0.39017662E+01  0.36128085E+01  0.33387321E+01  0.30791335E+01
  0.28335993E+01  0.26017081E+01  0.23830315E+01  0.21771360E+01  0.19835845E+01
  0.18019372E+01  0.16317534E+01  0.14725924E+01  0.13240148E+01  0.11855836E+01
  0.10568652E+01  0.93743030E+00  0.82685479E+00  0.72472070E+00  0.63061686E+00
  0.54413959E+00  0.46489338E+00  0.39249145E+00  0.32655622E+00  0.26671985E+00
  0.21262456E+00  0.16392303E+00  0.12027868E+00  0.81365900E-01  0.46870292E-01
  0.16488787E-01 -0.10070225E-01 -0.33086831E-01 -0.52829558E-01 -0.69555382E-01
 -0.83509762E-01 -0.94926715E-01 -0.10402891E+00 -0.11102782E+00 -0.11612382E+00
 -0.11950646E+00 -0.12135456E+00 -0.12183650E+00 -0.12111046E+00 -0.11932462E+00
 -0.11661749E+00 -0.11311816E+00 -0.10894659E+00 -0.10421393E+00 -0.99022843E-01
 -0.93467770E-01 -0.87635305E-01 -0.81604498E-01 -0.75447187E-01 -0.69228326E-01
 -0.63006317E-01 -0.56833338E-01 -0.50755672E-01 -0.44814025E-01 -0.39043853E-01
 -0.33475672E-01 -0.28135370E-01 -0.23044511E-01 -0.18220633E-01 -0.13677534E-01
 -0.94255573E-02 -0.54718650E-02 -0.18207007E-02  0.15263530E-02  0.45701289E-02
  0.73136377E-02  0.97618419E-02  0.11921438E-01  0.13800651E-01  0.15409035E-01
  0.16757291E-01  0.17857086E-01  0.18720892E-01  0.19361825E-01  0.19793505E-01
  0.20029912E-01  0.20085271E-01  0.19973923E-01  0.19710228E-01  0.19308460E-01
  0.18782722E-01  0.18146864E-01  0.17414408E-01  0.16598489E-01  0.15711791E-01
  0.14766508E-01  0.13774289E-01  0.12746216E-01  0.11692763E-01  0.10623783E-01
  0.95484809E-02  0.84754110E-02  0.74124637E-02  0.63668654E-02  0.53451803E-02
  0.43533163E-02  0.33965347E-02  0.24794628E-02  0.16061103E-02  0.77988745E-03
  0.36262836E-05 -0.72039651E-03 -0.13904346E-02 -0.20052459E-02 -0.25640646E-02
 -0.30665729E-02 -0.35128711E-02 -0.39034485E-02 -0.42391520E-02 -0.45211568E-02
 -0.47509351E-02 -0.49302267E-02 -0.50610085E-02 -0.51454662E-02 -0.51859647E-02
 -0.51850214E-02 -0.51452785E-02 -0.50694777E-02 -0.49604351E-02 -0.48210180E-02
 -0.46541220E-02 -0.44626505E-02 -0.42494943E-02 -0.40175140E-02 -0.37695220E-02
 -0.35082677E-02 -0.32364228E-02 -0.29565684E-02 -0.26711837E-02 -0.23826360E-02
 -0.20931714E-02 -0.18049079E-02 -0.15198287E-02 -0.12397776E-02 -0.96645492E-03
 -0.70141502E-03 -0.44606463E-03 -0.20166226E-03  0.30681291E-04  0.25000172E-03
  0.45547897E-03  0.64643436E-03  0.82232683E-03  0.98274871E-03  0.11274207E-02
  0.12561866E-02  0.13690071E-02  0.14659539E-02  0.15472026E-02  0.16130260E-02
  0.16637871E-02  0.16999314E-02  0.17219797E-02  0.17305205E-02  0.17262026E-02
  0.17097275E-02  0.16818418E-02  0.16433303E-02  0.15950085E-02  0.15377159E-02
  0.14723090E-02  0.13996549E-02  0.13206253E-02  0.12360901E-02  0.11469122E-02
  0.10539421E-02  0.95801294E-03  0.85993603E-03  0.76049652E-03  0.66044970E-03
  0.56051755E-03  0.46138565E-03  0.36370055E-03  0.26806747E-03  0.17504839E-03
  0.85160488E-04 -0.11250449E-05 -0.83383834E-04 -0.16123884E-03 -0.23436053E-03
 -0.30246677E-03 -0.36532237E-03 -0.42273845E-03 -0.47457142E-03 -0.52072182E-03
 -0.56113290E-03 -0.59578899E-03 -0.62471370E-03 -0.64796795E-03 -0.66564787E-03
 -0.67788253E-03 -0.68483161E-03 -0.68668300E-03 -0.68365023E-03 -0.67596998E-03
 -0.66389951E-03 -0.64771397E-03 -0.62770394E-03 -0.60417274E-03 -0.57743396E-03
 -0.54780892E-03 -0.51562427E-03 -0.48120960E-03 -0.44489519E-03 -0.40700979E-03
 -0.36787857E-03 -0.32782116E-03 -0.28714976E-03 -0.24616746E-03 -0.20516662E-03
 -0.16442746E-03 -0.12421667E-03 -0.84786310E-04 -0.46372740E-04 -0.91957327E-05
  0.26542265E-04  0.60656741E-04  0.92981581E-04  0.12336940E-03  0.15169174E-03
  0.17783912E-03  0.20172101E-03  0.22326564E-03  0.24241968E-03  0.25914792E-03
  0.27343269E-03  0.28527334E-03  0.29468552E-03  0.30170047E-03  0.30636415E-03
  0.30873642E-03  0.30889004E-03  0.30690974E-03  0.30289117E-03  0.29693984E-03
  0.28917007E-03  0.27970391E-03  0.26867001E-03  0.25620254E-03  0.24244009E-03
  0.22752464E-03  0.21160043E-03  0.19481300E-03  0.17730812E-03  0.15923089E-03
  0.14072478E-03  0.12193076E-03  0.10298648E-03  0.84025461E-04  0.65176424E-04
  0.46562585E-04  0.28301071E-04  0.10502372E-04 -0.67301359E-05 -0.23300608E-04
 -0.39121083E-04 -0.54111771E-04 -0.68201279E-04 -0.81326773E-04 -0.93434081E-04
 -0.10447774E-03 -0.11442096E-03 -0.12323560E-03 -0.13090199E-03 -0.13740878E-03
 -0.14275273E-03 -0.14693844E-03 -0.14997802E-03 -0.15189079E-03 -0.15270284E-03
 -0.15244669E-03 -0.15116079E-03 -0.14888911E-03 -0.14568064E-03 -0.14158889E-03
 -0.13667140E-03 -0.13098921E-03 -0.12460635E-03 -0.11758933E-03 -0.11000658E-03
 -0.10192797E-03 -0.93424332E-04 -0.84566887E-04 -0.75426835E-04 -0.66074860E-04
 -0.56580691E-04 -0.47012681E-04 -0.37437401E-04 -0.27919270E-04 -0.18520204E-04
 -0.92992921E-05 -0.31250658E-06  0.83875602E-05  0.16751929E-04  0.24735434E-04
  0.32296895E-04  0.39399253E-04  0.46009682E-04  0.52099664E-04  0.57645035E-04
  0.62626004E-04  0.67027142E-04  0.70837341E-04  0.74049749E-04  0.76661680E-04
  0.78674498E-04  0.80093479E-04  0.80927655E-04  0.81189637E-04  0.80895415E-04
  0.80064156E-04  0.78717971E-04  0.76881687E-04  0.74582594E-04  0.71850197E-04
  0.68715948E-04  0.65212988E-04  0.61375875E-04  0.57240315E-04  0.52842897E-04
  0.48220826E-04  0.43411660E-04  0.38453060E-04  0.33382535E-04  0.28237207E-04
  0.23053579E-04  0.17867316E-04  0.12713038E-04  0.76241244E-05  0.26325368E-05
 -0.22313502E-05 -0.69388984E-05 -0.11463341E-04 -0.15779903E-04 -0.19865901E-04
 -0.23700834E-04 -0.27266450E-04 -0.30546797E-04 -0.33528268E-04 -0.36199612E-04
 -0.38551944E-04 -0.40578737E-04 -0.42275789E-04 -0.43641192E-04 -0.44675273E-04
 -0.45380528E-04 -0.45761550E-04 -0.45824932E-04 -0.45579171E-04 -0.45034559E-04
 -0.44203064E-04 -0.43098208E-04 -0.41734929E-04 -0.40129452E-04 -0.38299141E-04
 -0.36262357E-04 -0.34038312E-04 -0.31646918E-04 -0.29108637E-04 -0.26444338E-04
 -0.23675143E-04 -0.20822289E-04 -0.17906980E-04 -0.14950255E-04 -0.11972855E-04
 -0.89950929E-05 -0.60367355E-05 -0.31168890E-05 -0.25389210E-06  0.25347826E-05
  0.52326190E-05  0.78241395E-05  0.10294978E-04  0.12631944E-04  0.14823077E-04
  0.16857692E-04  0.18726414E-04  0.20421207E-04  0.21935388E-04  0.23263638E-04
  0.24401997E-04  0.25347860E-04  0.26099951E-04  0.26658303E-04  0.27024221E-04
  0.27200241E-04  0.27190080E-04  0.26998585E-04  0.26631669E-04  0.26096244E-04
  0.25400155E-04  0.24552101E-04  0.23561557E-04  0.22438696E-04  0.21194299E-04
  0.19839675E-04  0.18386568E-04  0.16847075E-04  0.15233558E-04  0.13558551E-04
  0.11834679E-04  0.10074574E-04  0.82907896E-05  0.64957211E-05  0.47015314E-05
  0.29200752E-05  0.11628304E-05 -0.55916778E-06 -0.22353878E-05 -0.38558577E-05
 -0.54112168E-05 -0.68927612E-05 -0.82924848E-05 -0.96031143E-05 -0.10818139E-04
 -0.11931833E-04 -0.12939276E-04 -0.13836365E-04 -0.14619821E-04 -0.15287188E-04
 -0.15836834E-04 -0.16267939E-04 -0.16580479E-04 -0.16775212E-04 -0.16853651E-04
 -0.16818034E-04 -0.16671298E-04 -0.16417038E-04 -0.16059471E-04 -0.15603393E-04
 -0.15054132E-04 -0.14417504E-04 -0.13699761E-04 -0.12907542E-04 -0.12047819E-04
 -0.11127844E-04 -0.10155097E-04 -0.91372281E-05 -0.80820080E-05 -0.69972717E-05
 -0.58908670E-05 -0.47706025E-05 -0.36441982E-05 -0.25192366E-05 -0.14031169E-05
 -0.30301074E-06  0.77417944E-06  0.18218590E-05  0.28337772E-05  0.38040601E-05
  0.47272402E-05  0.55982832E-05  0.64126105E-05  0.71661190E-05  0.78551971E-05
  0.84767374E-05  0.90281451E-05  0.95073438E-05  0.99127773E-05  0.10243408E-04
  0.10498713E-04  0.10678673E-04  0.10783767E-04  0.10814951E-04  0.10773647E-04
  0.10661720E-04  0.10481459E-04  0.10235548E-04  0.99270464E-05  0.95593540E-05
  0.91361863E-05  0.86615411E-05  0.81396670E-05  0.75750300E-05  0.69722796E-05
  0.63362147E-05  0.56717488E-05  0.49838758E-05  0.42776356E-05  0.35580802E-05
  0.28302403E-05  0.20990934E-05  0.13695322E-05  0.64633457E-06 -0.65865109E-07
 -0.76260316E-06 -0.14396120E-05 -0.20928439E-05 -0.27184927E-05 -0.33130131E-05
 -0.38731392E-05 -0.43958988E-05 -0.48786274E-05 -0.53189787E-05 -0.57149334E-05
 -0.60648054E-05 -0.63672459E-05 -0.66212451E-05 -0.68261318E-05 -0.69815707E-05
 -0.70875575E-05 -0.71444124E-05 -0.71527707E-05 -0.71135729E-05 -0.70280517E-05
 -0.68977182E-05 -0.67243464E-05 -0.65099559E-05 -0.62567941E-05 -0.59673167E-05
 -0.56441676E-05 -0.52901575E-05 -0.49082424E-05 -0.45015015E-05 -0.40731145E-05
 -0.36263388E-05 -0.31644866E-05 -0.26909026E-05 -0.22089411E-05 -0.17219441E-05
 -0.12332199E-05 -0.74602187E-06 -0.26352876E-06  0.21117488E-06  0.67511679E-06
  0.11254542E-05  0.15594897E-05  0.19746860E-05  0.23686795E-05  0.27392919E-05
  0.30845410E-05  0.34026498E-05  0.36920539E-05  0.39514076E-05  0.41795884E-05
  0.43756999E-05  0.45390734E-05  0.46692677E-05  0.47660675E-05  0.48294806E-05
  0.48597332E-05  0.48572646E-05  0.48227200E-05  0.47569422E-05  0.46609628E-05
  0.45359911E-05  0.43834035E-05  0.42047308E-05  0.40016457E-05  0.37759487E-05
  0.35295545E-05  0.32644769E-05  0.29828138E-05  0.26867322E-05  0.23784525E-05
  0.20602332E-05  0.17343554E-05  0.14031072E-05  0.10687692E-05  0.73359932E-06
  0.39981866E-06  0.69597732E-07 -0.25495680E-06 -0.57181464E-06 -0.87903372E-06
 -0.11747712E-05 -0.14572935E-05 -0.17249860E-05 -0.19763608E-05 -0.22100646E-05
 -0.24248845E-05 -0.26197540E-05 -0.27937566E-05 -0.29461294E-05 -0.30762653E-05
 -0.31837137E-05 -0.32681811E-05 -0.33295297E-05 -0.33677758E-05 -0.33830867E-05
 -0.33757769E-05 -0.33463032E-05 -0.32952596E-05 -0.32233705E-05 -0.31314837E-05
 -0.30205631E-05 -0.28916794E-05 -0.27460021E-05 -0.25847897E-05 -0.24093797E-05
 -0.22211791E-05 -0.20216531E-05 -0.18123153E-05 -0.15947164E-05 -0.13704340E-05
 -0.11410611E-05 -0.90819595E-06 -0.67343156E-06 -0.43834509E-06 -0.20448801E-06
  0.26623539E-07  0.25351809E-06  0.47477763E-06  0.68904588E-06  0.89503613E-06
  0.10915383E-05  0.12774258E-05  0.14516608E-05  0.16133003E-05  0.17614998E-05
  0.18955176E-05  0.20147179E-05  0.21185727E-05  0.22066638E-05  0.22786833E-05
  0.23344339E-05  0.23738284E-05  0.23968880E-05  0.24037406E-05  0.23946181E-05
  0.23698529E-05  0.23298744E-05  0.22752040E-05  0.22064508E-05  0.21243055E-05
  0.20295348E-05  0.19229753E-05  0.18055262E-05  0.16781434E-05  0.15418312E-05
  0.13976356E-05  0.12466369E-05  0.10899413E-05  0.92867415E-06  0.76397166E-06
  0.59697359E-06  0.42881565E-06  0.26062222E-06  0.93499152E-07 -0.71473100E-07
 -0.23324613E-06 -0.39080989E-06 -0.54319862E-06 -0.68949643E-06 -0.82884247E-06
 -0.96043559E-06 -0.10835386E-05 -0.11974821E-05 -0.13016677E-05 -0.13955705E-05
 -0.14787417E-05 -0.15508102E-05 -0.16114835E-05 -0.16605486E-05 -0.16978718E-05
 -0.17233987E-05 -0.17371529E-05 -0.17392347E-05 -0.17298191E-05 -0.17091539E-05
 -0.16775561E-05 -0.16354095E-05 -0.15831605E-05 -0.15213148E-05 -0.14504325E-05
 -0.13711241E-05 -0.12840453E-05 -0.11898922E-05 -0.10893963E-05 -0.98331863E-06
 -0.87244489E-06 -0.75757954E-06 -0.63954042E-06 -0.51915314E-06 -0.39724560E-06
 -0.27464255E-06 -0.15216024E-06 -0.30601229E-07  0.89250620E-07  0.20663497E-06
  0.32081962E-06  0.43110479E-06  0.53682723E-06  0.63736396E-06  0.73213570E-06
  0.82060994E-06  0.90230375E-06  0.97678610E-06  0.10436799E-05  0.11026635E-05
  0.11534722E-05  0.11958989E-05  0.12297944E-05  0.12550678E-05  0.12716861E-05
  0.12796733E-05  0.12791098E-05  0.12701305E-05  0.12529234E-05  0.12277275E-05
  0.11948305E-05  0.11545659E-05  0.11073105E-05  0.10534812E-05  0.99353145E-06
  0.92794781E-06  0.85724644E-06  0.78196913E-06  0.70267940E-06  0.61995851E-06
  0.53440139E-06  0.44661254E-06  0.35720196E-06  0.26678108E-06  0.17595871E-06
  0.85337181E-07 -0.44915681E-08 -0.92949647E-07 -0.17947679E-06 -0.26353377E-06
 -0.34460554E-06 -0.42220434E-06 -0.49587236E-06 -0.56518435E-06 -0.62974991E-06
 -0.68921549E-06 -0.74326618E-06 -0.79162715E-06 -0.83406491E-06 -0.87038820E-06
 -0.90044856E-06 -0.92414077E-06 -0.94140282E-06 -0.95221570E-06 -0.95660290E-06
 -0.95462965E-06 -0.94640182E-06 -0.93206472E-06 -0.91180149E-06 -0.88583144E-06
 -0.85440799E-06 -0.81781662E-06 -0.77637245E-06 -0.73041782E-06 -0.68031963E-06
 -0.62646658E-06 -0.56926635E-06 -0.50914263E-06 -0.44653214E-06 -0.38188157E-06
 -0.31564456E-06 -0.24827862E-06 -0.18024205E-06 -0.11199101E-06 -0.43976499E-07
  0.23358463E-07  0.89581638E-07  0.15427423E-06  0.21703344E-06  0.27747484E-06
  0.33523466E-06  0.38997183E-06  0.44136990E-06  0.48913878E-06  0.53301623E-06
  0.57276919E-06  0.60819487E-06  0.63912170E-06  0.66540994E-06  0.68695220E-06
  0.70367365E-06  0.71553208E-06  0.72251770E-06  0.72465275E-06  0.72199091E-06
  0.71461652E-06  0.70264357E-06  0.68621458E-06  0.66549926E-06  0.64069300E-06
  0.61201528E-06  0.57970786E-06  0.54403292E-06  0.50527106E-06  0.46371919E-06
  0.41968842E-06  0.37350176E-06  0.32549191E-06  0.27599892E-06  0.22536789E-06
  0.17394663E-06  0.12208333E-06  0.70124350E-07  0.18411916E-07 -0.32718028E-07
 -0.82937931E-07 -0.13193066E-06 -0.17939144E-06 -0.22502965E-06 -0.26857055E-06
 -0.30975687E-06 -0.34835021E-06 -0.38413239E-06 -0.41690657E-06 -0.44649825E-06
 -0.47275614E-06 -0.49555277E-06 -0.51478508E-06 -0.53037469E-06 -0.54226815E-06
 -0.55043689E-06 -0.55487712E-06 -0.55560952E-06 -0.55267872E-06 -0.54615277E-06
 -0.53612234E-06 -0.52269981E-06 -0.50601831E-06 -0.48623048E-06 -0.46350731E-06
 -0.43803672E-06 -0.41002212E-06 -0.37968089E-06 -0.34724278E-06 -0.31294821E-06
 -0.27704658E-06 -0.23979456E-06 -0.20145425E-06 -0.16229144E-06 -0.12257383E-06
 -0.82569211E-07 -0.42543779E-07 -0.27603672E-08  0.36523204E-07  0.75055750E-07
  0.11259428E-06  0.14890547E-06  0.18376706E-06  0.21696917E-06  0.24831552E-06
  0.27762450E-06  0.30473019E-06  0.32948324E-06  0.35175165E-06  0.37142135E-06
  0.38839679E-06  0.40260124E-06  0.41397714E-06  0.42248615E-06  0.42810920E-06
  0.43084637E-06  0.43071661E-06  0.42775739E-06  0.42202423E-06  0.41359009E-06
  0.40254470E-06  0.38899372E-06  0.37305787E-06  0.35487194E-06  0.33458374E-06
  0.31235298E-06  0.28835005E-06  0.26275477E-06  0.23575513E-06  0.20754592E-06
  0.17832742E-06  0.14830396E-06  0.11768258E-06  0.86671628E-07  0.55479391E-07
  0.24312723E-07 -0.66242823E-08 -0.37131587E-07 -0.67014470E-07 -0.96084729E-07
 -0.12416183E-06 -0.15107399E-06 -0.17665920E-06 -0.20076613E-06 -0.22325504E-06
 -0.24399847E-06 -0.26288201E-06 -0.27980483E-06 -0.29468015E-06 -0.30743572E-06
 -0.31801400E-06 -0.32637246E-06 -0.33248359E-06 -0.33633495E-06 -0.33792902E-06
 -0.33728306E-06 -0.33442875E-06 -0.32941184E-06 -0.32229170E-06 -0.31314071E-06
 -0.30204367E-06 -0.28909708E-06 -0.27440839E-06 -0.25809511E-06 -0.24028397E-06
 -0.22110997E-06 -0.20071539E-06 -0.17924875E-06 -0.15686382E-06 -0.13371849E-06
 -0.10997375E-06 -0.85792527E-07 -0.61338672E-07 -0.36775831E-07 -0.12266394E-07
  0.12029554E-07  0.35955247E-07  0.59358227E-07  0.82091287E-07  0.10401337E-06
  0.12499041E-06  0.14489614E-06  0.16361280E-06  0.18103184E-06  0.19705447E-06
 atomic pseudo charge-density
  0.70000000E+01  0.69911283E+01  0.69648148E+01  0.69219402E+01  0.68638915E+01
  0.67924529E+01  0.67096729E+01  0.66177250E+01  0.65187751E+01  0.64148684E+01
  0.63078425E+01  0.61992711E+01  0.60904350E+01  0.59823193E+01  0.58756291E+01
  0.57708195E+01  0.56681333E+01  0.55676410E+01  0.54692821E+01  0.53729009E+01
  0.52782796E+01  0.51851651E+01  0.50932903E+01  0.50023910E+01  0.49122175E+01
  0.48225430E+01  0.47331685E+01  0.46439257E+01  0.45546774E+01  0.44653172E+01
  0.43757682E+01  0.42859804E+01  0.41959284E+01  0.41056088E+01  0.40150376E+01
  0.39242470E+01  0.38332832E+01  0.37422040E+01  0.36510761E+01  0.35599738E+01
  0.34689766E+01  0.33781677E+01  0.32876326E+01  0.31974579E+01  0.31077304E+01
  0.30185357E+01  0.29299582E+01  0.28420797E+01  0.27549795E+01  0.26687338E+01
  0.25834153E+01  0.24990932E+01  0.24158329E+01  0.23336960E+01  0.22527400E+01
  0.21730187E+01  0.20945819E+01  0.20174756E+01  0.19417419E+01  0.18674192E+01
  0.17945425E+01  0.17231430E+01  0.16532484E+01  0.15848835E+01  0.15180694E+01
  0.14528243E+01  0.13891635E+01  0.13270992E+01  0.12666410E+01  0.12077956E+01
  0.11505674E+01  0.10949581E+01  0.10409671E+01  0.98859155E+00  0.93782637E+00
  0.88866444E+00  0.84109664E+00  0.79511195E+00  0.75069754E+00  0.70783889E+00
  0.66651983E+00  0.62672264E+00  0.58842817E+00  0.55161588E+00  0.51626395E+00
  0.48234935E+00  0.44984791E+00  0.41873442E+00  0.38898271E+00  0.36056569E+00
  0.33345546E+00  0.30762336E+00  0.28304008E+00  0.25967568E+00  0.23749967E+00
  0.21648112E+00  0.19658869E+00  0.17779067E+00  0.16005510E+00  0.14334980E+00
  0.12764242E+00  0.11290054E+00  0.99091657E-01  0.86183314E-01  0.74143101E-01
  0.62938731E-01  0.52538081E-01  0.42909239E-01  0.34020554E-01  0.25840678E-01
  0.18338605E-01  0.11483716E-01  0.52458131E-02 -0.40484288E-03 -0.54974974E-02
 -0.10060871E-01 -0.14123129E-01 -0.17711852E-01 -0.20854012E-01 -0.23575947E-01
 -0.25903337E-01 -0.27861186E-01 -0.29473804E-01 -0.30764788E-01 -0.31757012E-01
 -0.32472608E-01 -0.32932964E-01 -0.33158708E-01 -0.33169705E-01 -0.32985052E-01
 -0.32623071E-01 -0.32101315E-01 -0.31436560E-01 -0.30644814E-01 -0.29741315E-01
 -0.28740538E-01 -0.27656205E-01 -0.26501288E-01 -0.25288018E-01 -0.24027900E-01
 -0.22731725E-01 -0.21409575E-01 -0.20070848E-01 -0.18724265E-01 -0.17377889E-01
 -0.16039144E-01 -0.14714830E-01 -0.13411140E-01 -0.12133686E-01 -0.10887512E-01
 -0.96771157E-02 -0.85064726E-02 -0.73790541E-02 -0.62978503E-02 -0.52653913E-02
 -0.42837693E-02 -0.33546609E-02 -0.24793489E-02 -0.16587448E-02 -0.89341036E-03
 -0.18358014E-03  0.47081717E-03  0.10701371E-02  0.16149980E-02  0.21062605E-02
  0.25450066E-02  0.29325197E-02  0.32702651E-02  0.35598707E-02  0.38031083E-02
  0.40018757E-02  0.41581796E-02  0.42741180E-02  0.43518648E-02  0.43936538E-02
  0.44017642E-02  0.43785064E-02  0.43262088E-02  0.42472046E-02  0.41438205E-02
  0.40183654E-02  0.38731196E-02  0.37103255E-02  0.35321787E-02  0.33408194E-02
  0.31383250E-02  0.29267039E-02  0.27078885E-02  0.24837308E-02  0.22559970E-02
  0.20263638E-02  0.17964150E-02  0.15676386E-02  0.13414250E-02  0.11190651E-02
  0.90174953E-03  0.69056789E-03  0.48650916E-03  0.29046202E-03  0.10321585E-03
 -0.74537804E-04 -0.24220345E-03 -0.39927946E-03 -0.54535549E-03 -0.68010972E-03
 -0.80330560E-03 -0.91478855E-03 -0.10144823E-02 -0.11023849E-02 -0.11785652E-02
 -0.12431579E-02 -0.12963601E-02 -0.13384263E-02 -0.13696642E-02 -0.13904304E-02
 -0.14011253E-02 -0.14021894E-02 -0.13940978E-02 -0.13773568E-02 -0.13524987E-02
 -0.13200777E-02 -0.12806658E-02 -0.12348488E-02 -0.11832217E-02 -0.11263858E-02
 -0.10649440E-02 -0.99949800E-03 -0.93064469E-03 -0.85897295E-03 -0.78506069E-03
 -0.70947211E-03 -0.63275510E-03 -0.55543886E-03 -0.47803172E-03 -0.40101924E-03
 -0.32486241E-03 -0.24999617E-03 -0.17682807E-03 -0.10573716E-03 -0.37073103E-04
  0.28844554E-04  0.91726864E-04  0.15131581E-03  0.20738443E-03  0.25973678E-03
  0.30820770E-03  0.35266250E-03  0.39299633E-03  0.42913362E-03  0.46102719E-03
  0.48865738E-03  0.51203096E-03  0.53118002E-03  0.54616070E-03  0.55705190E-03
  0.56395385E-03  0.56698665E-03  0.56628880E-03  0.56201560E-03  0.55433756E-03
  0.54343884E-03  0.52951560E-03  0.51277435E-03  0.49343039E-03  0.47170613E-03
  0.44782960E-03  0.42203281E-03  0.39455028E-03  0.36561758E-03  0.33546987E-03
  0.30434057E-03  0.27246005E-03  0.24005439E-03  0.20734421E-03  0.17454361E-03
  0.14185914E-03  0.10948884E-03  0.77621464E-04  0.46435651E-04  0.16099287E-04
 -0.13231100E-04 -0.41410839E-04 -0.68307531E-04 -0.93801388E-04 -0.11778547E-03
 -0.14016586E-03 -0.16086174E-03 -0.17980540E-03 -0.19694216E-03 -0.21223024E-03
 -0.22564054E-03 -0.23715638E-03 -0.24677312E-03 -0.25449779E-03 -0.26034866E-03
 -0.26435471E-03 -0.26655506E-03 -0.26699847E-03 -0.26574263E-03 -0.26285357E-03
 -0.25840493E-03 -0.25247734E-03 -0.24515761E-03 -0.23653809E-03 -0.22671586E-03
 -0.21579206E-03 -0.20387111E-03 -0.19105998E-03 -0.17746751E-03 -0.16320364E-03
 -0.14837877E-03 -0.13310307E-03 -0.11748580E-03 -0.10163476E-03 -0.85655631E-04
 -0.69651433E-04 -0.53722010E-04 -0.37963523E-04 -0.22468003E-04 -0.73229281E-05
  0.73891501E-05  0.21590942E-04  0.35210717E-04  0.48182553E-04  0.60446549E-04
  0.71948995E-04  0.82642496E-04  0.92486062E-04  0.10144515E-03  0.10949168E-03
  0.11660398E-03  0.12276674E-03  0.12797093E-03  0.13221359E-03  0.13549774E-03
  0.13783212E-03  0.13923102E-03  0.13971398E-03  0.13930553E-03  0.13803491E-03
  0.13593573E-03  0.13304563E-03  0.12940599E-03  0.12506149E-03  0.12005981E-03
  0.11445124E-03  0.10828825E-03  0.10162521E-03  0.94517897E-04  0.87023211E-04
  0.79198743E-04  0.71102435E-04  0.62792210E-04  0.54325631E-04  0.45759561E-04
  0.37149844E-04  0.28550993E-04  0.20015907E-04  0.11595592E-04  0.33389099E-05
 -0.47076553E-05 -0.12500210E-04 -0.19997644E-04 -0.27161800E-04 -0.33957620E-04
 -0.40353273E-04 -0.46320255E-04 -0.51833469E-04 -0.56871284E-04 -0.61415570E-04
 -0.65451707E-04 -0.68968585E-04 -0.71958568E-04 -0.74417450E-04 -0.76344386E-04
 -0.77741805E-04 -0.78615309E-04 -0.78973551E-04 -0.78828105E-04 -0.78193315E-04
 -0.77086132E-04 -0.75525949E-04 -0.73534413E-04 -0.71135236E-04 -0.68353997E-04
 -0.65217942E-04 -0.61755767E-04 -0.57997414E-04 -0.53973857E-04 -0.49716881E-04
 -0.45258876E-04 -0.40632621E-04 -0.35871078E-04 -0.31007187E-04 -0.26073664E-04
 -0.21102815E-04 -0.16126345E-04 -0.11175186E-04 -0.62793241E-05 -0.14676484E-05
  0.32322019E-05  0.77939701E-05  0.12192907E-04  0.16405884E-04  0.20411491E-04
  0.24190123E-04  0.27724056E-04  0.30997504E-04  0.33996671E-04  0.36709781E-04
  0.39127103E-04  0.41240957E-04  0.43045711E-04  0.44537764E-04  0.45715521E-04
  0.46579349E-04  0.47131531E-04  0.47376205E-04  0.47319289E-04  0.46968410E-04
  0.46332811E-04  0.45423256E-04  0.44251930E-04  0.42832331E-04  0.41179155E-04
  0.39308180E-04  0.37236142E-04  0.34980614E-04  0.32559877E-04  0.29992791E-04
  0.27298671E-04  0.24497156E-04  0.21608081E-04  0.18651355E-04  0.15646838E-04
  0.12614217E-04  0.95728974E-05  0.65418853E-05  0.35396852E-05  0.58419744E-06
 -0.23073761E-05 -0.51186207E-05 -0.78339905E-05 -0.10438883E-04 -0.12919706E-04
 -0.15263939E-04 -0.17460181E-04 -0.19498200E-04 -0.21368962E-04 -0.23064666E-04
 -0.24578757E-04 -0.25905944E-04 -0.27042199E-04 -0.27984756E-04 -0.28732096E-04
 -0.29283936E-04 -0.29641193E-04 -0.29805961E-04 -0.29781467E-04 -0.29572026E-04
 -0.29182995E-04 -0.28620714E-04 -0.27892445E-04 -0.27006312E-04 -0.25971229E-04
 -0.24796827E-04 -0.23493386E-04 -0.22071752E-04 -0.20543264E-04 -0.18919669E-04
 -0.17213045E-04 -0.15435720E-04 -0.13600192E-04 -0.11719047E-04 -0.98048823E-05
 -0.78702301E-05 -0.59274808E-05 -0.39888118E-05 -0.20661172E-05 -0.17094191E-06
  0.16855817E-05  0.34927928E-05  0.52405571E-05  0.69193175E-05  0.85201402E-05
  0.10034756E-04  0.11455598E-04  0.12775831E-04  0.13989379E-04  0.15090946E-04
  0.16076035E-04  0.16940955E-04  0.17682827E-04  0.18299588E-04  0.18789986E-04
  0.19153568E-04  0.19390669E-04  0.19502396E-04  0.19490599E-04  0.19357851E-04
  0.19107415E-04  0.18743211E-04  0.18269777E-04  0.17692231E-04  0.17016227E-04
  0.16247910E-04  0.15393869E-04  0.14461087E-04  0.13456892E-04  0.12388905E-04
  0.11264986E-04  0.10093183E-04  0.88816797E-05  0.76387418E-05  0.63726648E-05
  0.50917234E-05  0.38041213E-05  0.25179423E-05  0.12411037E-05 -0.18689018E-07
 -0.12539852E-05 -0.24576291E-05 -0.36227983E-05 -0.47430386E-05 -0.58122963E-05
 -0.68249476E-05 -0.77758244E-05 -0.86602372E-05 -0.94739948E-05 -0.10213420E-04
 -0.10875362E-04 -0.11457206E-04 -0.11956879E-04 -0.12372852E-04 -0.12704140E-04
 -0.12950295E-04 -0.13111400E-04 -0.13188061E-04 -0.13181391E-04 -0.13092991E-04
 -0.12924937E-04 -0.12679754E-04 -0.12360395E-04 -0.11970211E-04 -0.11512928E-04
 -0.10992613E-04 -0.10413648E-04 -0.97806894E-05 -0.90986433E-05 -0.83726248E-05
 -0.76079255E-05 -0.68099772E-05 -0.59843164E-05 -0.51365483E-05 -0.42723116E-05
 -0.33972430E-05 -0.25169434E-05 -0.16369437E-05 -0.76267268E-06  0.10057461E-06
  0.94766651E-06  0.17736633E-05  0.25738440E-05  0.33437311E-05  0.40791137E-05
  0.47760685E-05  0.54309784E-05  0.60405493E-05  0.66018246E-05  0.71121969E-05
  0.75694181E-05  0.79716064E-05  0.83172517E-05  0.86052178E-05  0.88347432E-05
  0.90054388E-05  0.91172837E-05  0.91706194E-05  0.91661404E-05  0.91048847E-05
  0.89882208E-05  0.88178338E-05  0.85957097E-05  0.83241178E-05  0.80055917E-05
  0.76429099E-05  0.72390739E-05  0.67972861E-05  0.63209271E-05  0.58135315E-05
  0.52787640E-05  0.47203944E-05  0.41422731E-05  0.35483057E-05  0.29424288E-05
  0.23285846E-05  0.17106976E-05  0.10926500E-05  0.47825937E-06 -0.12874415E-06
 -0.72473876E-06 -0.13062315E-05 -0.18698776E-05 -0.24124981E-05 -0.29310968E-05
 -0.34228754E-05 -0.38852472E-05 -0.43158496E-05 -0.47125547E-05 -0.50734783E-05
 -0.53969876E-05 -0.56817066E-05 -0.59265207E-05 -0.61305789E-05 -0.62932949E-05
 -0.64143458E-05 -0.64936703E-05 -0.65314643E-05 -0.65281759E-05 -0.64844981E-05
 -0.64013607E-05 -0.62799208E-05 -0.61215519E-05 -0.59278321E-05 -0.57005307E-05
 -0.54415949E-05 -0.51531343E-05 -0.48374060E-05 -0.44967979E-05 -0.41338121E-05
 -0.37510479E-05 -0.33511841E-05 -0.29369617E-05 -0.25111655E-05 -0.20766070E-05
 -0.16361063E-05 -0.11924751E-05 -0.74849920E-06 -0.30692225E-06  0.12957057E-06
  0.55836802E-06  0.97694757E-06  0.13828894E-05  0.17738897E-05  0.21477728E-05
  0.25025024E-05  0.28361921E-05  0.31471142E-05  0.34337083E-05  0.36945875E-05
  0.39285448E-05  0.41345574E-05  0.43117901E-05  0.44595973E-05  0.45775245E-05
  0.46653074E-05  0.47228711E-05  0.47503275E-05  0.47479717E-05  0.47162770E-05
  0.46558900E-05  0.45676232E-05  0.44524480E-05  0.43114860E-05  0.41460000E-05
  0.39573840E-05  0.37471528E-05  0.35169308E-05  0.32684404E-05  0.30034897E-05
  0.27239608E-05  0.24317965E-05  0.21289877E-05  0.18175608E-05  0.14995642E-05
  0.11770560E-05  0.85209079E-06  0.52670758E-06  0.20291719E-06 -0.11730941E-06
 -0.43205265E-06 -0.73945526E-06 -0.10377328E-05 -0.13251833E-05 -0.16001966E-05
 -0.18612630E-05 -0.21069804E-05 -0.23360619E-05 -0.25473418E-05 -0.27397805E-05
 -0.29124699E-05 -0.30646359E-05 -0.31956420E-05 -0.33049909E-05 -0.33923255E-05
 -0.34574288E-05 -0.35002236E-05 -0.35207707E-05 -0.35192664E-05 -0.34960396E-05
 -0.34515475E-05 -0.33863713E-05 -0.33012107E-05 -0.31968779E-05 -0.30742910E-05
 -0.29344667E-05 -0.27785131E-05 -0.26076210E-05 -0.24230562E-05 -0.22261498E-05
 -0.20182899E-05 -0.18009119E-05 -0.15754889E-05 -0.13435228E-05 -0.11065339E-05
 -0.86605196E-06 -0.62360644E-06 -0.38071720E-06 -0.13888536E-06  0.10041559E-06
  0.33574846E-06  0.56572059E-06  0.78899172E-06  0.10042815E-05  0.12103765E-05
  0.14061364E-05  0.15905005E-05  0.17624925E-05  0.19212256E-05  0.20659068E-05
  0.21958401E-05  0.23104295E-05  0.24091816E-05  0.24917066E-05  0.25577198E-05
  0.26070417E-05  0.26395973E-05  0.26554159E-05  0.26546286E-05  0.26374668E-05
  0.26042591E-05  0.25554279E-05  0.24914858E-05  0.24130309E-05  0.23207423E-05
  0.22153748E-05  0.20977529E-05  0.19687654E-05  0.18293587E-05  0.16805302E-05
  0.15233219E-05  0.13588129E-05  0.11881129E-05  0.10123546E-05  0.83268643E-06
  0.65026566E-06  0.46625096E-06  0.28179535E-06  0.98039260E-07 -0.83896292E-07
 -0.26291629E-06 -0.43795805E-06 -0.60799731E-06 -0.77205399E-06 -0.92919755E-06
 -0.10785521E-05 -0.12193009E-05 -0.13506908E-05 -0.14720357E-05 -0.15827203E-05
 -0.16822024E-05 -0.17700158E-05 -0.18457716E-05 -0.19091602E-05 -0.19599515E-05
 -0.19979960E-05 -0.20232241E-05 -0.20356454E-05 -0.20353485E-05 -0.20224983E-05
 -0.19973348E-05 -0.19601705E-05 -0.19113873E-05 -0.18514336E-05 -0.17808205E-05
 -0.17001179E-05 -0.16099506E-05 -0.15109932E-05 -0.14039657E-05 -0.12896286E-05
 -0.11687775E-05 -0.10422380E-05 -0.91086006E-06 -0.77551271E-06 -0.63707835E-06
 -0.49644728E-06 -0.35451209E-06 -0.21216221E-06 -0.70278519E-07  0.70271966E-07
  0.20864119E-06  0.34400504E-06  0.47556804E-06  0.60256790E-06  0.72427978E-06
  0.84002019E-06  0.94915076E-06  0.10510815E-05  0.11452738E-05  0.12312433E-05
  0.13085618E-05  0.13768597E-05  0.14358270E-05  0.14852149E-05  0.15248364E-05
  0.15545666E-05  0.15743428E-05  0.15841644E-05  0.15840917E-05  0.15742448E-05
  0.15548028E-05  0.15260011E-05  0.14881298E-05  0.14415314E-05  0.13865976E-05
  0.13237666E-05  0.12535199E-05  0.11763786E-05  0.10929002E-05  0.10036740E-05
  0.90931793E-06  0.81047389E-06  0.70780373E-06  0.60198492E-06  0.49370625E-06
  0.38366345E-06  0.27255485E-06  0.16107709E-06  0.49920844E-07 -0.60233294E-07
 -0.16871890E-06 -0.27488762E-06 -0.37811292E-06 -0.47779370E-06 -0.57335765E-06
 -0.66426441E-06 -0.75000855E-06 -0.83012223E-06 -0.90417764E-06 -0.97178916E-06
 -0.10326152E-05 -0.10863599E-05 -0.11327742E-05 -0.11716571E-05 -0.12028561E-05
 -0.12262677E-05 -0.12418374E-05 -0.12495596E-05 -0.12494770E-05 -0.12416797E-05
 -0.12263041E-05 -0.12035319E-05 -0.11735880E-05 -0.11367387E-05 -0.10932900E-05
 -0.10435847E-05 -0.98800045E-06 -0.92694651E-06 -0.86086126E-06 -0.79020899E-06
 -0.71547687E-06 -0.63717161E-06 -0.55581620E-06 -0.47194648E-06 -0.38610772E-06
 -0.29885119E-06 -0.21073066E-06 -0.12229904E-06 -0.34104927E-07  0.53310660E-07
  0.13941754E-06  0.22369950E-06  0.30565730E-06  0.38481157E-06  0.46070550E-06
  0.53290743E-06  0.60101320E-06  0.66464832E-06  0.72346997E-06  0.77716874E-06
  0.82547017E-06  0.86813601E-06  0.90496537E-06  0.93579546E-06  0.96050220E-06
  0.97900061E-06  0.99124481E-06  0.99722795E-06  0.99698179E-06  0.99057610E-06
  0.97811781E-06  0.95974994E-06  0.93565034E-06  0.90603024E-06  0.87113252E-06
  0.83122997E-06  0.78662320E-06  0.73763855E-06  0.68462578E-06  0.62795568E-06
  0.56801755E-06  0.50521662E-06  0.43997138E-06  0.37271087E-06  0.30387190E-06
  0.23389635E-06  0.16322832E-06  0.92311419E-07  0.21586039E-07 -0.48513330E-07
 -0.11756071E-06 -0.18514114E-06 -0.25085315E-06 -0.31431106E-06 -0.37514719E-06
 -0.43301392E-06 -0.48758565E-06 -0.53856053E-06 -0.58566210E-06 -0.62864068E-06
 -0.66727468E-06 -0.70137160E-06 -0.73076899E-06 -0.75533505E-06 -0.77496917E-06
 -0.78960220E-06 -0.79919656E-06 -0.80374613E-06 -0.80327596E-06 -0.79784178E-06
 -0.78752934E-06 -0.77245358E-06 -0.75275761E-06 -0.72861151E-06 -0.70021107E-06
 -0.66777621E-06 -0.63154946E-06 -0.59179422E-06 -0.54879289E-06 -0.50284492E-06
 -0.45426487E-06 -0.40338022E-06 -0.35052928E-06 -0.29605897E-06 -0.24032260E-06
 -0.18367762E-06 -0.12648340E-06 -0.69098972E-07 -0.11880816E-07  0.44819278E-07
  0.10065636E-06  0.15529435E-06  0.20840803E-06  0.25968496E-06  0.30882721E-06
  0.35555309E-06  0.39959874E-06  0.44071950E-06  0.47869131E-06  0.51331180E-06
  0.54440137E-06  0.57180405E-06  0.59538819E-06  0.61504708E-06  0.63069928E-06
  0.64228895E-06  0.64978586E-06  0.65318535E-06  0.65250811E-06  0.64779976E-06
  0.63913034E-06  0.62659363E-06  0.61030631E-06  0.59040704E-06  0.56705536E-06
  0.54043053E-06  0.51073015E-06  0.47816886E-06  0.44297674E-06  0.40539781E-06
  0.36568838E-06  0.32411529E-06  0.28095422E-06  0.23648789E-06  0.19100421E-06
  0.14479449E-06  0.98151610E-07  0.51368164E-07  0.47346978E-08 -0.41462080E-07
   17.0075338972103      T
 Non local Part
           1           2   1.18824278939285     
   9.62386048455587       -14.4262800258415       -14.4262800258415     
   12.6557768267629     
 Reciprocal Space Part
  0.00000000E+00  0.15872193E+00  0.31762487E+00  0.47689020E+00  0.63669962E+00
  0.79723437E+00  0.95867331E+00  0.11211897E+01  0.12849464E+01  0.14500893E+01
  0.16167391E+01  0.17849816E+01  0.19548562E+01  0.21263436E+01  0.22993526E+01
  0.24737066E+01  0.26491300E+01  0.28252356E+01  0.30015136E+01  0.31773221E+01
  0.33518806E+01  0.35242659E+01  0.36934126E+01  0.38581169E+01  0.40170447E+01
  0.41687446E+01  0.43116650E+01  0.44441758E+01  0.45645943E+01  0.46712151E+01
  0.47623423E+01  0.48363257E+01  0.48915976E+01  0.49267109E+01  0.49403776E+01
  0.49315054E+01  0.48992331E+01  0.48429619E+01  0.47623838E+01  0.46575040E+01
  0.45286579E+01  0.43765219E+01  0.42021167E+01  0.40068038E+01  0.37922735E+01
  0.35605269E+01  0.33138488E+01  0.30547752E+01  0.27860536E+01  0.25105982E+01
  0.22314402E+01  0.19516751E+01  0.16744071E+01  0.14026930E+01  0.11394857E+01
  0.88758032E+00  0.64956204E+00  0.42775894E+00  0.22419977E+00  0.40578106E-01
 -0.12177635E+00 -0.26191855E+00 -0.37930058E+00 -0.47377539E+00 -0.54559193E+00
 -0.59538164E+00 -0.62413676E+00 -0.63318109E+00 -0.62413382E+00 -0.59886754E+00
 -0.55946133E+00 -0.50815032E+00 -0.44727281E+00 -0.37921639E+00 -0.30636436E+00
 -0.23104373E+00 -0.15547605E+00 -0.81732315E-01 -0.11692774E-01  0.52987240E-01
  0.11090493E+00  0.16093049E+00  0.20222013E+00  0.23422146E+00  0.25667145E+00
  0.26958712E+00  0.27324951E+00  0.26818151E+00  0.25512040E+00  0.23498595E+00
  0.20884508E+00  0.17787425E+00  0.14332048E+00  0.10646237E+00  0.68571921E-01
  0.30878391E-01 -0.54650152E-02 -0.39410749E-01 -0.70042141E-01 -0.96593702E-01
 Real Space Part
  0.00000000E+00  0.10199141E+01  0.20362983E+01  0.30456368E+01  0.40444414E+01
  0.50292653E+01  0.59967170E+01  0.69434731E+01  0.78662921E+01  0.87620268E+01
  0.96276371E+01  0.10460202E+02  0.11256931E+02  0.12015176E+02  0.12732442E+02
  0.13406395E+02  0.14034876E+02  0.14615906E+02  0.15147695E+02  0.15628653E+02
  0.16057390E+02  0.16432729E+02  0.16753707E+02  0.17019583E+02  0.17229838E+02
  0.17384178E+02  0.17482541E+02  0.17525090E+02  0.17512221E+02  0.17444558E+02
  0.17322949E+02  0.17148472E+02  0.16922420E+02  0.16646306E+02  0.16321853E+02
  0.15950988E+02  0.15535835E+02  0.15078708E+02  0.14582100E+02  0.14048674E+02
  0.13481250E+02  0.12882798E+02  0.12256418E+02  0.11605335E+02  0.10932878E+02
  0.10242467E+02  0.95375974E+01  0.88218250E+01  0.80987465E+01  0.73719830E+01
  0.66451618E+01  0.59218979E+01  0.52057747E+01  0.45003253E+01  0.38090128E+01
  0.31352110E+01  0.24821850E+01  0.18530721E+01  0.12508626E+01  0.67838146E+00
  0.13827010E+00 -0.36703063E+00 -0.83529711E+00 -0.12645384E+01 -0.16530106E+01
 -0.19992298E+01 -0.23019842E+01 -0.25603437E+01 -0.27736683E+01 -0.29416153E+01
 -0.30641434E+01 -0.31415156E+01 -0.31743001E+01 -0.31633678E+01 -0.31098897E+01
 -0.30153306E+01 -0.28814406E+01 -0.27102451E+01 -0.25040334E+01 -0.22653427E+01
 -0.19969436E+01 -0.17018216E+01 -0.13831571E+01 -0.10443063E+01 -0.68877836E+00
 -0.32020382E+00  0.57750471E-01  0.44071687E+00  0.82265696E+00  0.12300621E+01
  0.12939963E+01  0.12698873E+01  0.12028685E+01  0.11006124E+01  0.96188003E+00
  0.78733855E+00  0.57793529E+00  0.34063047E+00  0.43045117E-01  0.00000000E+00
 Reciprocal Space Part
  0.00000000E+00  0.51232644E+00  0.10177867E+01  0.15095901E+01  0.19810971E+01
  0.24258934E+01  0.28378632E+01  0.32112611E+01  0.35407813E+01  0.38216239E+01
  0.40495580E+01  0.42209800E+01  0.43329672E+01  0.43833250E+01  0.43706269E+01
  0.42942469E+01  0.41543828E+01  0.39520694E+01  0.36891817E+01  0.33684260E+01
  0.29933192E+01  0.25681563E+01  0.20979648E+01  0.15884468E+01  0.10459090E+01
  0.47718105E+00 -0.11047699E+00 -0.70947636E+00 -0.13120099E+01 -0.19101688E+01
 -0.24960638E+01 -0.30619491E+01 -0.36003464E+01 -0.41041675E+01 -0.45668312E+01
 -0.49823746E+01 -0.53455547E+01 -0.56519380E+01 -0.58979776E+01 -0.60810742E+01
 -0.61996207E+01 -0.62530287E+01 -0.62417355E+01 -0.61671931E+01 -0.60318368E+01
 -0.58390354E+01 -0.55930235E+01 -0.52988172E+01 -0.49621143E+01 -0.45891822E+01
 -0.41867352E+01 -0.37618029E+01 -0.33215948E+01 -0.28733616E+01 -0.24242577E+01
 -0.19812078E+01 -0.15507794E+01 -0.11390657E+01 -0.75157939E+00 -0.39316158E+00
 -0.67906091E-01  0.22089847E+00  0.47080806E+00  0.68024347E+00  0.84849119E+00
  0.97568542E+00  0.10627718E+01  0.11114542E+01  0.11241261E+01  0.11037891E+01
  0.10539592E+01  0.97856558E+00  0.88184289E+00  0.76822034E+00  0.64221047E+00
  0.50830014E+00  0.37084650E+00  0.23398022E+00  0.10151830E+00 -0.23111867E-01
 -0.13693535E+00 -0.23747863E+00 -0.32280364E+00 -0.39152666E+00 -0.44282212E+00
 -0.47641175E+00 -0.49253992E+00 -0.49193640E+00 -0.47576792E+00 -0.44558039E+00
 -0.40323360E+00 -0.35083056E+00 -0.29064361E+00 -0.22503942E+00 -0.15640511E+00
 -0.87077332E-01 -0.19276395E-01  0.44953095E-01  0.10379358E+00  0.15569678E+00
 Real Space Part
  0.00000000E+00 -0.13102468E+01 -0.26151097E+01 -0.39092283E+01 -0.51872886E+01
 -0.64440460E+01 -0.76743483E+01 -0.88731580E+01 -0.10035574E+02 -0.11156855E+02
 -0.12232435E+02 -0.13257951E+02 -0.14229257E+02 -0.15142445E+02 -0.15993859E+02
 -0.16780118E+02 -0.17498126E+02 -0.18145089E+02 -0.18718529E+02 -0.19216293E+02
 -0.19636567E+02 -0.19977885E+02 -0.20239133E+02 -0.20419563E+02 -0.20518790E+02
 -0.20536802E+02 -0.20473958E+02 -0.20330990E+02 -0.20109002E+02 -0.19809466E+02
 -0.19434220E+02 -0.18985457E+02 -0.18465723E+02 -0.17877904E+02 -0.17225215E+02
 -0.16511189E+02 -0.15739659E+02 -0.14914748E+02 -0.14040843E+02 -0.13122582E+02
 -0.12164834E+02 -0.11172670E+02 -0.10151346E+02 -0.91062735E+01 -0.80429956E+01
 -0.69671589E+01 -0.58844838E+01 -0.48007360E+01 -0.37216948E+01 -0.26531225E+01
 -0.16007317E+01 -0.57015358E+00  0.43309598E+00  0.14036484E+01  0.23363160E+01
  0.32261241E+01  0.40683435E+01  0.48585220E+01  0.55925144E+01  0.62665124E+01
  0.68770720E+01  0.74211399E+01  0.78960774E+01  0.82996829E+01  0.86302105E+01
  0.88863879E+01  0.90674294E+01  0.91730471E+01  0.92034581E+01  0.91593887E+01
  0.90420745E+01  0.88532575E+01  0.85951786E+01  0.82705669E+01  0.78826248E+01
  0.74350108E+01  0.69318166E+01  0.63775418E+01  0.57770676E+01  0.51356223E+01
  0.44587501E+01  0.37522737E+01  0.30222553E+01  0.22749593E+01  0.15168106E+01
  0.75433555E+00 -0.59899823E-02 -0.75653321E+00 -0.14867385E+01 -0.22452527E+01
 -0.23647764E+01 -0.23227815E+01 -0.22020285E+01 -0.20164498E+01 -0.17636290E+01
 -0.14446637E+01 -0.10611812E+01 -0.62588324E+00 -0.79127973E-01  0.00000000E+00
 Non local Part
           0           2   1.18824278939285     
   1.52842726855764        6.27684745114581        6.27684745114581     
   26.3797270581275     
 Reciprocal Space Part
  0.20989848E+01  0.19305208E+01  0.14280924E+01  0.60053483E+00 -0.53761478E+00
 -0.19663948E+01 -0.36607998E+01 -0.55912560E+01 -0.77241813E+01 -0.10022620E+02
 -0.12446934E+02 -0.14955546E+02 -0.17505707E+02 -0.20054280E+02 -0.22558526E+02
 -0.24976870E+02 -0.27269634E+02 -0.29399728E+02 -0.31333276E+02 -0.33040176E+02
 -0.34494572E+02 -0.35675244E+02 -0.36565895E+02 -0.37155343E+02 -0.37437608E+02
 -0.37411900E+02 -0.37082505E+02 -0.36458580E+02 -0.35553854E+02 -0.34386259E+02
 -0.32977477E+02 -0.31352438E+02 -0.29538772E+02 -0.27566212E+02 -0.25465994E+02
 -0.23270232E+02 -0.21011308E+02 -0.18721277E+02 -0.16431292E+02 -0.14171083E+02
 -0.11968473E+02 -0.98489529E+01 -0.78353284E+01 -0.59474249E+01 -0.42018712E+01
 -0.26119550E+01 -0.11875526E+01  0.64870246E-01  0.11421874E+01  0.20444779E+01
  0.27748329E+01  0.33391112E+01  0.37456513E+01  0.40049476E+01  0.41293007E+01
  0.41324504E+01  0.40291997E+01  0.38350402E+01  0.35657850E+01  0.32372195E+01
  0.28647745E+01  0.24632293E+01  0.20464493E+01  0.16271622E+01  0.12167751E+01
  0.82523524E+00  0.46093379E+00  0.13065300E+00 -0.16044518E+00 -0.40879144E+00
 -0.61234559E+00 -0.77050127E+00 -0.88396329E+00 -0.95460261E+00 -0.98529411E+00
 -0.97974245E+00 -0.94230129E+00 -0.87779103E+00 -0.79131973E+00 -0.68811187E+00
 -0.57334861E+00 -0.45202311E+00 -0.32881356E+00 -0.20797600E+00 -0.93258373E-01
  0.12163534E-01  0.10572808E+00  0.18550830E+00  0.25021203E+00  0.29916324E+00
  0.33226652E+00  0.34995715E+00  0.35313929E+00  0.34311501E+00  0.32150704E+00
  0.29017805E+00  0.25114909E+00  0.20651981E+00  0.15839274E+00  0.10880363E+00
 Real Space Part
 -0.12712833E+03 -0.12707801E+03 -0.12692705E+03 -0.12667539E+03 -0.12632296E+03
 -0.12586966E+03 -0.12531537E+03 -0.12465995E+03 -0.12390327E+03 -0.12304519E+03
 -0.12208557E+03 -0.12102432E+03 -0.11986137E+03 -0.11859670E+03 -0.11723036E+03
 -0.11576248E+03 -0.11419327E+03 -0.11252307E+03 -0.11075235E+03 -0.10888171E+03
 -0.10691194E+03 -0.10484399E+03 -0.10267905E+03 -0.10041849E+03 -0.98063956E+02
 -0.95617343E+02 -0.93080822E+02 -0.90456866E+02 -0.87748257E+02 -0.84958107E+02
 -0.82089870E+02 -0.79147356E+02 -0.76134741E+02 -0.73056577E+02 -0.69917800E+02
 -0.66723733E+02 -0.63480090E+02 -0.60192974E+02 -0.56868877E+02 -0.53514668E+02
 -0.50137587E+02 -0.46745232E+02 -0.43345538E+02 -0.39946757E+02 -0.36557435E+02
 -0.33186379E+02 -0.29842627E+02 -0.26535404E+02 -0.23274087E+02 -0.20068152E+02
 -0.16927128E+02 -0.13860539E+02 -0.10877846E+02 -0.79883879E+01 -0.52013134E+01
 -0.25255148E+01  0.30441795E-01  0.24583883E+01  0.47506267E+01  0.69000017E+01
  0.88999730E+01  0.10744686E+02  0.12429040E+02  0.13948754E+02  0.15300430E+02
  0.16481604E+02  0.17490802E+02  0.18327584E+02  0.18992573E+02  0.19487490E+02
  0.19815168E+02  0.19979561E+02  0.19985741E+02  0.19839887E+02  0.19549256E+02
  0.19122151E+02  0.18567872E+02  0.17896658E+02  0.17119622E+02  0.16248665E+02
  0.15296394E+02  0.14276028E+02  0.13201286E+02  0.12086288E+02  0.10945431E+02
  0.97932843E+01  0.86444572E+01  0.75134900E+01  0.64147298E+01  0.53622182E+01
  0.43695785E+01  0.34499093E+01  0.26156853E+01  0.18786657E+01  0.12498061E+01
  0.73920706E+00  0.35602999E+00  0.10784036E+00  0.51484471E-02  0.00000000E+00
 Reciprocal Space Part
  0.68590700E+01  0.68765482E+01  0.69285627E+01  0.70138615E+01  0.71303868E+01
  0.72753186E+01  0.74451327E+01  0.76356744E+01  0.78422452E+01  0.80596994E+01
  0.82825513E+01  0.85050877E+01  0.87214853E+01  0.89259299E+01  0.91127344E+01
  0.92764536E+01  0.94119934E+01  0.95147120E+01  0.95805112E+01  0.96059153E+01
  0.95881374E+01  0.95251303E+01  0.94156227E+01  0.92591385E+01  0.90560004E+01
  0.88073176E+01  0.85149572E+01  0.81815015E+01  0.78101918E+01  0.74048596E+01
  0.69698479E+01  0.65099237E+01  0.60301836E+01  0.55359559E+01  0.50326990E+01
  0.45259012E+01  0.40209814E+01  0.35231943E+01  0.30375415E+01  0.25686897E+01
  0.21208987E+01  0.16979594E+01  0.13031429E+01  0.93916173E+00  0.60814363E+00
  0.31161778E+00  0.50513346E-01 -0.17482999E+00 -0.36464020E+00 -0.51968078E+00
 -0.64120926E+00 -0.73092784E+00 -0.79092739E+00 -0.82362631E+00 -0.83170597E+00
 -0.81804405E+00 -0.78564756E+00 -0.73758682E+00 -0.67693197E+00 -0.60669315E+00
 -0.52976562E+00 -0.44888061E+00 -0.36656290E+00 -0.28509547E+00 -0.20649186E+00
 -0.13247623E+00 -0.64471290E-01 -0.35937050E-02  0.49343148E-01  0.93819777E-01
  0.12959508E+00  0.15668553E+00  0.17533996E+00  0.18601067E+00  0.18932210E+00
  0.18603765E+00  0.17702597E+00  0.16322727E+00  0.14562073E+00  0.12519366E+00
  0.10291308E+00  0.79700305E-01  0.56408986E-01  0.33806868E-01  0.12561554E-01
 -0.67697076E-02 -0.23746205E-01 -0.38046077E-01 -0.49464982E-01 -0.57911446E-01
 -0.63399274E-01 -0.66037476E-01 -0.66018199E-01 -0.63603148E-01 -0.59109042E-01
 -0.52892588E-01 -0.45335472E-01 -0.36829812E-01 -0.27764478E-01 -0.18512638E-01
 Real Space Part
  0.29125070E+02  0.29114955E+02  0.29084605E+02  0.29034003E+02  0.28963124E+02
  0.28871933E+02  0.28760385E+02  0.28628432E+02  0.28476016E+02  0.28303078E+02
  0.28109558E+02  0.27895394E+02  0.27660531E+02  0.27404917E+02  0.27128513E+02
  0.26831289E+02  0.26513232E+02  0.26174352E+02  0.25814677E+02  0.25434265E+02
  0.25033205E+02  0.24611622E+02  0.24169677E+02  0.23707578E+02  0.23225578E+02
  0.22723982E+02  0.22203151E+02  0.21663504E+02  0.21105522E+02  0.20529755E+02
  0.19936821E+02  0.19327409E+02  0.18702286E+02  0.18062294E+02  0.17408357E+02
  0.16741476E+02  0.16062737E+02  0.15373306E+02  0.14674433E+02  0.13967446E+02
  0.13253756E+02  0.12534848E+02  0.11812284E+02  0.11087694E+02  0.10362776E+02
  0.96392876E+01  0.89190398E+01  0.82038915E+01  0.74957398E+01  0.67965120E+01
  0.61081551E+01  0.54326256E+01  0.47718779E+01  0.41278520E+01  0.35024608E+01
  0.28975766E+01  0.23150171E+01  0.17565310E+01  0.12237835E+01  0.71834137E+00
  0.24165827E+00 -0.20493979E+00 -0.62026872E+00 -0.10033000E+01 -0.13531738E+01
 -0.16692107E+01 -0.19509231E+01 -0.21980247E+01 -0.24104385E+01 -0.25883037E+01
 -0.27319802E+01 -0.28420518E+01 -0.29193264E+01 -0.29648350E+01 -0.29798280E+01
 -0.29657695E+01 -0.29243289E+01 -0.28573702E+01 -0.27669410E+01 -0.26552560E+01
 -0.25246819E+01 -0.23777189E+01 -0.22169806E+01 -0.20451738E+01 -0.18650753E+01
 -0.16795103E+01 -0.14913280E+01 -0.13033787E+01 -0.11184902E+01 -0.93944462E+00
 -0.76895609E+00 -0.60964926E+00 -0.46403900E+00 -0.33451160E+00 -0.22330672E+00
 -0.13250596E+00 -0.64015582E-01 -0.19446217E-01 -0.92920817E-03  0.00000000E+00
 PAW radial sets
         371  0.925357835009377     
(5E20.12)                                
 augmentation charges (non sperical)
  0.743622151350E+00 -0.361293231868E+00 -0.120840702465E+00 -0.415026185460E+00 -0.361293231868E+00
  0.129561056601E+00  0.248133949201E-01  0.527285130300E-01 -0.120840702465E+00  0.248133949201E-01
  0.208215393161E-02 -0.154218782392E-01 -0.415026185460E+00  0.527285130300E-01 -0.154218782392E-01
 -0.162686644718E+00
 uccopancies in atom
  0.200000000019E+01  0.000000000000E+00  0.000000000000E+00  0.000000000000E+00  0.000000000000E+00
  0.000000000000E+00  0.000000000000E+00  0.000000000000E+00  0.000000000000E+00  0.000000000000E+00
  0.100000000173E+01  0.000000000000E+00  0.000000000000E+00  0.000000000000E+00  0.000000000000E+00
  0.000000000000E+00
 grid
  0.330471652264E-04  0.341217765970E-04  0.352313316485E-04  0.363769666623E-04  0.375598548687E-04
  0.387812076486E-04  0.400422757741E-04  0.413443506890E-04  0.426887658319E-04  0.440768980013E-04
  0.455101687659E-04  0.469900459202E-04  0.485180449876E-04  0.500957307729E-04  0.517247189641E-04
  0.534066777874E-04  0.551433297157E-04  0.569364532323E-04  0.587878846523E-04  0.606995200034E-04
  0.626733169671E-04  0.647112968841E-04  0.668155468238E-04  0.689882217221E-04  0.712315465879E-04
  0.735478187820E-04  0.759394103694E-04  0.784087705490E-04  0.809584281613E-04  0.835909942785E-04
  0.863091648784E-04  0.891157236052E-04  0.920135446203E-04  0.950055955457E-04  0.980949405028E-04
  0.101284743251E-03  0.104578270427E-03  0.107978894890E-03  0.111490099178E-03  0.115115479069E-03
  0.118858747271E-03  0.122723737216E-03  0.126714406992E-03  0.130834843393E-03  0.135089266107E-03
  0.139482032035E-03  0.144017639751E-03  0.148700734116E-03  0.153536111026E-03  0.158528722331E-03
  0.163683680901E-03  0.169006265863E-03  0.174501928010E-03  0.180176295379E-03  0.186035179020E-03
  0.192084578941E-03  0.198330690256E-03  0.204779909528E-03  0.211438841323E-03  0.218314304967E-03
  0.225413341537E-03  0.232743221066E-03  0.240311449992E-03  0.248125778842E-03  0.256194210172E-03
  0.264525006760E-03  0.273126700071E-03  0.282008098990E-03  0.291178298844E-03  0.300646690722E-03
  0.310422971082E-03  0.320517151691E-03  0.330939569872E-03  0.341700899091E-03  0.352812159890E-03
  0.364284731171E-03  0.376130361849E-03  0.388361182886E-03  0.400989719711E-03  0.414028905049E-03
  0.427492092165E-03  0.441393068540E-03  0.455746069988E-03  0.470565795237E-03  0.485867420980E-03
  0.501666617419E-03  0.517979564312E-03  0.534822967543E-03  0.552214076227E-03  0.570170700380E-03
  0.588711229155E-03  0.607854649672E-03  0.627620566468E-03  0.648029221567E-03  0.669101515217E-03
  0.690859027288E-03  0.713324039373E-03  0.736519557608E-03  0.760469336229E-03  0.785197901905E-03
  0.810730578845E-03  0.837093514744E-03  0.864313707551E-03  0.892419033121E-03  0.921438273765E-03
  0.951401147721E-03  0.982338339589E-03  0.101428153176E-02  0.104726343685E-02  0.108131783121E-02
  0.111647958952E-02  0.115278472050E-02  0.119027040376E-02  0.122897502793E-02  0.126893822992E-02
  0.131020093555E-02  0.135280540142E-02  0.139679525824E-02  0.144221555546E-02  0.148911280743E-02
  0.153753504105E-02  0.158753184490E-02  0.163915442009E-02  0.169245563264E-02  0.174749006766E-02
  0.180431408520E-02  0.186298587804E-02  0.192356553121E-02  0.198611508358E-02  0.205069859134E-02
  0.211738219367E-02  0.218623418038E-02  0.225732506194E-02  0.233072764162E-02  0.240651709007E-02
  0.248477102231E-02  0.256556957721E-02  0.264899549955E-02  0.273513422476E-02  0.282407396642E-02
  0.291590580661E-02  0.301072378915E-02  0.310862501593E-02  0.320970974638E-02  0.331408150008E-02
  0.342184716284E-02  0.353311709612E-02  0.364800525003E-02  0.376662928010E-02  0.388911066770E-02
  0.401557484447E-02  0.414615132078E-02  0.428097381835E-02  0.442018040720E-02  0.456391364704E-02
  0.471232073327E-02  0.486555364771E-02  0.502376931426E-02  0.518712975959E-02  0.535580227907E-02
  0.552995960809E-02  0.570978009898E-02  0.589544790364E-02  0.608715316212E-02  0.628509219737E-02
  0.648946771624E-02  0.670048901713E-02  0.691837220429E-02  0.714334040915E-02  0.737562401880E-02
  0.761546091196E-02  0.786309670256E-02  0.811878499130E-02  0.838278762533E-02  0.865537496641E-02
  0.893682616779E-02  0.922742946012E-02  0.952748244654E-02  0.983729240754E-02  0.101571766156E-01
  0.104874626601E-01  0.108284887828E-01  0.111806042242E-01  0.115441695814E-01  0.119195571770E-01
  0.123071514407E-01  0.127073493030E-01  0.131205606014E-01  0.135472085003E-01  0.139877299246E-01
  0.144425760066E-01  0.149122125485E-01  0.153971204992E-01  0.158977964467E-01  0.164147531270E-01
  0.169485199489E-01  0.174996435362E-01  0.180686882878E-01  0.186562369550E-01  0.192628912392E-01
  0.198892724072E-01  0.205360219283E-01  0.212038021303E-01  0.218932968785E-01  0.226052122759E-01
  0.233402773860E-01  0.240992449797E-01  0.248828923062E-01  0.256920218888E-01  0.265274623469E-01
  0.273900692445E-01  0.282807259664E-01  0.292003446231E-01  0.301498669843E-01  0.311302654439E-01
  0.321425440156E-01  0.331877393611E-01  0.342669218519E-01  0.353811966650E-01  0.365317049152E-01
  0.377196248236E-01  0.389461729239E-01  0.402126053086E-01  0.415202189151E-01  0.428703528539E-01
  0.442643897803E-01  0.457037573098E-01  0.471899294806E-01  0.487244282628E-01  0.503088251173E-01
  0.519447426050E-01  0.536338560482E-01  0.553778952468E-01  0.571786462492E-01  0.590379531820E-01
  0.609577201378E-01  0.629399131258E-01  0.649865620847E-01  0.670997629621E-01  0.692816798602E-01
  0.715345472526E-01  0.738606722724E-01  0.762624370748E-01  0.787423012770E-01  0.813028044765E-01
  0.839465688524E-01  0.866763018504E-01  0.894947989556E-01  0.924049465554E-01  0.954097248953E-01
  0.985122111307E-01  0.101715582479E+00  0.105023119472E+00  0.108438209316E+00  0.111964349363E+00
  0.115605150687E+00  0.119364341788E+00  0.123245772405E+00  0.127253417463E+00  0.131391381141E+00
  0.135663901074E+00  0.140075352697E+00  0.144630253722E+00  0.149333268764E+00  0.154189214124E+00
  0.159203062712E+00  0.164379949148E+00  0.169725175017E+00  0.175244214296E+00  0.180942718964E+00
  0.186826524787E+00  0.192901657298E+00  0.199174337963E+00  0.205650990554E+00  0.212338247731E+00
  0.219242957828E+00  0.226372191872E+00  0.233733250822E+00  0.241333673046E+00  0.249181242039E+00
  0.257283994399E+00  0.265650228052E+00  0.274288510752E+00  0.283207688856E+00  0.292416896380E+00
  0.301925564360E+00  0.311743430500E+00  0.321880549156E+00  0.332347301620E+00  0.343154406764E+00
  0.354312932006E+00  0.365834304653E+00  0.377730323595E+00  0.390013171396E+00  0.402695426766E+00
  0.415790077443E+00  0.429310533492E+00  0.443270641042E+00  0.457684696464E+00  0.472567461009E+00
  0.487934175929E+00  0.503800578084E+00  0.520182916054E+00  0.537097966787E+00  0.554563052771E+00
  0.572596059781E+00  0.591215455193E+00  0.610440306894E+00  0.630290302812E+00  0.650785771077E+00
  0.671947700841E+00  0.693797763768E+00  0.716358336231E+00  0.739652522230E+00  0.763704177046E+00
  0.788537931674E+00  0.814179218051E+00  0.840654295093E+00  0.867990275594E+00  0.896215153985E+00
  0.925357835009E+00  0.955448163318E+00  0.986516954038E+00  0.101859602432E+01  0.105171822595E+01
  0.108591747894E+01  0.112122880632E+01  0.115768836998E+01  0.119533350769E+01  0.123420277137E+01
  0.127433596654E+01  0.131577419309E+01  0.135855988739E+01  0.140273686574E+01  0.144835036921E+01
  0.149544711003E+01  0.154407531936E+01  0.159428479675E+01  0.164612696109E+01  0.169965490328E+01
  0.175492344061E+01  0.181198917290E+01  0.187091054044E+01  0.193174788387E+01  0.199456350593E+01
  0.205942173531E+01  0.212638899252E+01  0.219553385786E+01  0.226692714173E+01  0.234064195709E+01
  0.241675379435E+01  0.249534059868E+01  0.257648284983E+01  0.266026364457E+01  0.274676878175E+01
  0.283608685018E+01  0.292830931938E+01  0.302353063320E+01  0.312184830661E+01  0.322336302548E+01
  0.332817874976E+01  0.343640281991E+01  0.354814606684E+01  0.366352292539E+01  0.378265155155E+01
  0.390565394345E+01  0.403265606628E+01  0.416378798130E+01  0.429918397908E+01  0.443898271692E+01
  0.458332736097E+01
 aepotential
  0.288490517735E+05  0.283498973427E+05  0.278135651286E+05  0.272430970148E+05  0.266422625413E+05
  0.260147206258E+05  0.253639860684E+05  0.246940702486E+05  0.240083821365E+05  0.233105911509E+05
  0.226040911806E+05  0.218922115027E+05  0.211779644442E+05  0.204643561115E+05  0.197540703688E+05
  0.190495554635E+05  0.183531288170E+05  0.176668108975E+05  0.169923938669E+05  0.163314792042E+05
  0.156854128657E+05  0.150553549997E+05  0.144422465799E+05  0.138468545608E+05  0.132697555808E+05
  0.127113717066E+05  0.121719702116E+05  0.116516849507E+05  0.111505280921E+05  0.106684044268E+05
  0.102051245129E+05  0.976041795927E+04  0.933394427931E+04  0.892530612972E+04  0.853405613333E+04
  0.815971185481E+04  0.780175910434E+04  0.745966013116E+04  0.713286586742E+04  0.682081422286E+04
  0.652294029222E+04  0.623868025196E+04  0.596747764966E+04  0.570877338170E+04  0.546203121825E+04
  0.522671705952E+04  0.500231700213E+04  0.478832950768E+04  0.458427127801E+04  0.438967566542E+04
  0.420409091344E+04  0.402708963558E+04  0.385824955230E+04  0.369718510373E+04  0.354350658425E+04
  0.339686700354E+04  0.325690151744E+04  0.312329951755E+04  0.299574492580E+04  0.287393014487E+04
  0.275759118498E+04  0.264642933837E+04  0.254023185629E+04  0.243871518477E+04  0.234167952012E+04
  0.224889096838E+04  0.216014938781E+04  0.207525764628E+04  0.199402860759E+04  0.191628532319E+04
  0.184186520904E+04  0.177060474657E+04  0.170235698283E+04  0.163697872805E+04  0.157433356717E+04
  0.151429379444E+04  0.145673981112E+04  0.140155333567E+04  0.134862778268E+04  0.129785753302E+04
  0.124914400904E+04  0.120239447473E+04  0.115751923684E+04  0.111443459403E+04  0.107305936704E+04
  0.103331882701E+04  0.995139191790E+03  0.958451439367E+03  0.923194143740E+03  0.889295543942E+03
  0.856707468038E+03  0.825366762951E+03  0.795222538444E+03  0.766221974781E+03  0.738316377293E+03
  0.711461986813E+03  0.685611075942E+03  0.660724042025E+03  0.636759939789E+03  0.613680599196E+03
  0.591448889856E+03  0.570031001021E+03  0.549393055670E+03  0.529503118951E+03  0.510331431038E+03
  0.491848612189E+03  0.474027216581E+03  0.456840735518E+03  0.440263747650E+03  0.424272270736E+03
  0.408843002186E+03  0.393953984358E+03  0.379583865789E+03  0.365712596575E+03  0.352320439187E+03
  0.339389134195E+03  0.326900574037E+03  0.314837879060E+03  0.303184610939E+03  0.291925005968E+03
  0.281044144847E+03  0.270527426281E+03  0.260361077296E+03  0.250531779914E+03  0.241026745967E+03
  0.231833609316E+03  0.222940823460E+03  0.214336647710E+03  0.206010612861E+03  0.197951981630E+03
  0.190150769923E+03  0.182597087019E+03  0.175281967313E+03  0.168196073725E+03  0.161330949444E+03
  0.154678212435E+03  0.148229788651E+03  0.141978000563E+03  0.135915327918E+03  0.130034606220E+03
  0.124328899376E+03  0.118791483602E+03  0.113415875973E+03  0.108195871345E+03  0.103125424071E+03
  0.981986643189E+02  0.934100134776E+02  0.887539867615E+02  0.842253267022E+02  0.798189193944E+02
  0.755298532539E+02  0.713533349142E+02  0.672847193840E+02  0.633195512397E+02  0.594534570959E+02
  0.556822415681E+02  0.520017941521E+02  0.484081627215E+02  0.448974794902E+02  0.414660171534E+02
  0.381101276897E+02  0.348262866700E+02  0.316110509543E+02  0.284610895172E+02  0.253731400422E+02
  0.223440388747E+02  0.193707020021E+02  0.164501483397E+02  0.135794194632E+02  0.107556900554E+02
  0.797615963981E+01  0.523811930843E+01  0.253893322619E+01 -0.123998709366E+00 -0.275318874970E+01
 -0.535111612999E+01 -0.792017003422E+01 -0.104627222887E+02 -0.129810556024E+02 -0.154774311805E+02
 -0.179540355633E+02 -0.204130234789E+02 -0.228564905352E+02 -0.252864917013E+02 -0.277050310096E+02
 -0.301140704362E+02 -0.325155271853E+02 -0.349112692022E+02 -0.373031259375E+02 -0.396928803842E+02
 -0.420822709869E+02 -0.444729935993E+02 -0.468666988359E+02 -0.492649927884E+02 -0.516694359642E+02
 -0.540815437458E+02 -0.565027835922E+02 -0.589345758545E+02 -0.613782913539E+02 -0.638352506795E+02
 -0.663067223348E+02 -0.687939213137E+02 -0.712980062744E+02 -0.738200789934E+02 -0.763611808028E+02
 -0.789222904329E+02 -0.815043212090E+02 -0.841081189825E+02 -0.867344568957E+02 -0.893840340202E+02
 -0.920574704606E+02 -0.947553033556E+02 -0.974779827351E+02 -0.100225866505E+03 -0.102999215323E+03
 -0.105798186488E+03 -0.108622829830E+03 -0.111473077101E+03 -0.114348737441E+03 -0.117249489873E+03
 -0.120174871626E+03 -0.123124269788E+03 -0.126096910187E+03 -0.129091843956E+03 -0.132107937281E+03
 -0.135143850012E+03 -0.138198026379E+03 -0.141268668475E+03 -0.144353721665E+03 -0.147450846769E+03
 -0.150557399251E+03 -0.153670397024E+03 -0.156786496401E+03 -0.159901957990E+03 -0.163012618492E+03
 -0.166113859712E+03 -0.169200583031E+03 -0.172267188156E+03 -0.175307562542E+03 -0.178315084272E+03
 -0.181282646708E+03 -0.184202709911E+03 -0.187067389530E+03 -0.189868591174E+03 -0.192598200495E+03
 -0.195248337281E+03 -0.197811678995E+03 -0.200281852943E+03 -0.202653885100E+03 -0.204924674573E+03
 -0.207093433194E+03 -0.209161983716E+03 -0.211134750384E+03 -0.213018199756E+03 -0.214819428451E+03
 -0.216543602427E+03 -0.218190112105E+03 -0.219747739842E+03 -0.221189861613E+03 -0.222471541047E+03
 -0.223530818892E+03 -0.224295917002E+03 -0.224698212966E+03 -0.224688305645E+03 -0.224250469141E+03
 -0.223410256462E+03 -0.222231337698E+03 -0.220801144356E+03 -0.219209945365E+03 -0.217531761228E+03
 -0.215814379435E+03 -0.214080035485E+03 -0.212332808366E+03 -0.210567337325E+03 -0.208775385705E+03
 -0.206949400808E+03 -0.205083736951E+03 -0.203174579913E+03 -0.201219396638E+03 -0.199216375696E+03
 -0.197164047169E+03 -0.195061104126E+03 -0.192906375218E+03 -0.190698887144E+03 -0.188437957437E+03
 -0.186123285386E+03 -0.183755023398E+03 -0.181333819991E+03 -0.178860839796E+03 -0.176337760181E+03
 -0.173766752500E+03 -0.171150452275E+03 -0.168491919321E+03 -0.165794593977E+03 -0.163062249017E+03
 -0.160298936024E+03 -0.157508935000E+03 -0.154696695852E+03 -0.151866781736E+03 -0.149023808359E+03
 -0.146172381367E+03 -0.143317030481E+03 -0.140462140615E+03 -0.137611876786E+03 -0.134770116952E+03
 -0.131940368597E+03 -0.129125702005E+03 -0.126328685879E+03 -0.123551341505E+03 -0.120795124233E+03
 -0.118060943755E+03 -0.115349233593E+03 -0.112660075959E+03 -0.109993380139E+03 -0.107349101580E+03
 -0.104727477164E+03 -0.102129242160E+03 -0.995557916763E+02 -0.970092563025E+02 -0.944924814601E+02
 -0.920089322598E+02 -0.895625867044E+02 -0.871579202401E+02 -0.848001030588E+02 -0.824954846772E+02
 -0.802522485531E+02 -0.780806792495E+02 -0.759917933950E+02 -0.739925876908E+02 -0.720771685877E+02
 -0.702172997359E+02 -0.683626335139E+02 -0.664615421803E+02 -0.644950965102E+02 -0.624914035376E+02
 -0.605018712297E+02 -0.585674397201E+02 -0.567062849142E+02 -0.549203417667E+02 -0.532049247005E+02
 -0.515543846921E+02 -0.499641825100E+02 -0.484311459892E+02 -0.469532199672E+02 -0.455289765338E+02
 -0.441573295681E+02 -0.428371333146E+02 -0.415669854412E+02 -0.403449834259E+02 -0.391686502205E+02
 -0.380349662077E+02 -0.369404903979E+02 -0.358816089059E+02 -0.348547877452E+02 -0.338567934377E+02
 -0.328848665114E+02 -0.319368051300E+02 -0.310109856142E+02 -0.301063339150E+02 -0.292222646466E+02
 -0.283586046831E+02 -0.275155097015E+02 -0.266933781735E+02 -0.258927640295E+02 -0.251142880431E+02
 -0.243585488047E+02 -0.236260364220E+02 -0.229170549646E+02 -0.222316617799E+02 -0.215696318061E+02
 -0.209304522607E+02
 core charge-density
  0.228923233011E-04  0.243991361936E-04  0.260050919818E-04  0.277167100304E-04  0.295409380183E-04
  0.314851800405E-04  0.335573265513E-04  0.357657862646E-04  0.381195201450E-04  0.406280776209E-04
  0.433016351682E-04  0.461510374159E-04  0.491878409418E-04  0.524243609283E-04  0.558737208700E-04
  0.595499055282E-04  0.634678173441E-04  0.676433365361E-04  0.720933851218E-04  0.768359951169E-04
  0.818903811842E-04  0.872770180216E-04  0.930177227962E-04  0.991357429510E-04  0.105655849734E-03
  0.112604437818E-03  0.120009631411E-03  0.127901397264E-03  0.136311665045E-03  0.145274455528E-03
  0.154826017124E-03  0.165004971283E-03  0.175852467334E-03  0.187412347384E-03  0.199731321915E-03
  0.212859156770E-03  0.226848872257E-03  0.241756955157E-03  0.257643584462E-03  0.274572871711E-03
  0.292613116887E-03  0.311837080840E-03  0.332322275320E-03  0.354151271721E-03  0.377412029761E-03
  0.402198247329E-03  0.428609732893E-03  0.456752801861E-03  0.486740698454E-03  0.518694044680E-03
  0.552741318152E-03  0.589019360568E-03  0.627673918765E-03  0.668860220462E-03  0.712743586819E-03
  0.759500084170E-03  0.809317217350E-03  0.862394667305E-03  0.918945075648E-03  0.979194879182E-03
  0.104338519751E-02  0.111177277692E-02  0.118463099430E-02  0.126225092439E-02  0.134494247485E-02
  0.143303559274E-02  0.152688154731E-02  0.162685429348E-02  0.173335192108E-02  0.184679819509E-02
  0.196764419246E-02  0.209637004123E-02  0.223348676843E-02  0.237953826305E-02  0.253510336124E-02
  0.270079806098E-02  0.287727787396E-02  0.306524032292E-02  0.326542759307E-02  0.347862934673E-02
  0.370568571076E-02  0.394749044704E-02  0.420499431659E-02  0.447920864871E-02  0.477120912688E-02
  0.508213980412E-02  0.541321736073E-02  0.576573561840E-02  0.614107032536E-02  0.654068422704E-02
  0.696613243996E-02  0.741906814326E-02  0.790124860804E-02  0.841454158075E-02  0.896093204148E-02
  0.954252935686E-02  0.101615748479E-01  0.108204497966E-01  0.115216839122E-01  0.122679642827E-01
  0.130621448356E-01  0.139072563344E-01  0.148065169366E-01  0.157633433432E-01  0.167813625659E-01
  0.178644243440E-01  0.190166142404E-01  0.202422674494E-01  0.215459833482E-01  0.229326408249E-01
  0.244074144195E-01  0.259757913094E-01  0.276435891780E-01  0.294169750003E-01  0.313024847826E-01
  0.333070442929E-01  0.354379908183E-01  0.377030959862E-01  0.401105896849E-01  0.426691851193E-01
  0.453881050370E-01  0.482771091558E-01  0.513465228278E-01  0.546072669659E-01  0.580708892632E-01
  0.617495967266E-01  0.656562895478E-01  0.698045963256E-01  0.742089106542E-01  0.788844290767E-01
  0.838471904142E-01  0.891141164480E-01  0.947030539532E-01  0.100632818042E+00  0.106923236793E+00
  0.113595197110E+00  0.120670691745E+00  0.128172867415E+00  0.136126073911E+00  0.144555914086E+00
  0.153489294593E+00  0.162954477206E+00  0.172981130553E+00  0.183600382042E+00  0.194844869744E+00
  0.206748793960E+00  0.219347968173E+00  0.232679869013E+00  0.246783684881E+00  0.261700362774E+00
  0.277472652837E+00  0.294145150106E+00  0.311764332864E+00  0.330378596943E+00  0.350038285268E+00
  0.370795711880E+00  0.392705179549E+00  0.415822990100E+00  0.440207446409E+00  0.465918845016E+00
  0.493019458154E+00  0.521573503975E+00  0.551647103587E+00  0.583308223499E+00  0.616626601909E+00
  0.651673657238E+00  0.688522377164E+00  0.727247186380E+00  0.767923791118E+00  0.810628998542E+00
  0.855440508839E+00  0.902436677985E+00  0.951696248912E+00  0.100329804885E+01  0.105732065062E+01
  0.111384199551E+01  0.117293897557E+01  0.123468697286E+01  0.129915935380E+01  0.136642691618E+01
  0.143655728716E+01  0.150961427022E+01  0.158565713984E+01  0.166473988220E+01  0.174691038142E+01
  0.183220955044E+01  0.192067040665E+01  0.201231709276E+01  0.210716384388E+01  0.220521390290E+01
  0.230645838646E+01  0.241087510533E+01  0.251842734365E+01  0.262906260260E+01  0.274271131544E+01
  0.285928554197E+01  0.297867765216E+01  0.310075900966E+01  0.322537866819E+01  0.335236209485E+01
  0.348150993640E+01  0.361259684640E+01  0.374537039260E+01  0.387955006598E+01  0.401482641463E+01
  0.415086032704E+01  0.428728249124E+01  0.442369305756E+01  0.455966153387E+01  0.469472694319E+01
  0.482839827421E+01  0.496015525542E+01  0.508944948322E+01  0.521570593385E+01  0.533832488739E+01
  0.545668429013E+01  0.557014257856E+01  0.567804198547E+01  0.577971234262E+01  0.587447539056E+01
  0.596164959931E+01  0.604055549543E+01  0.611052148411E+01  0.617089014449E+01  0.622102496638E+01
  0.626031748667E+01  0.628819476909E+01  0.630412716297E+01  0.630763625866E+01  0.629830294966E+01
  0.627577549369E+01  0.623977745743E+01  0.619011541298E+01  0.612668624882E+01  0.604948394444E+01
  0.595860565506E+01  0.585425694555E+01  0.573675601337E+01  0.560653674161E+01  0.546415042992E+01
  0.531026606055E+01  0.514566897320E+01  0.497125784070E+01  0.478803986324E+01  0.459712412772E+01
  0.439971311315E+01  0.419709236060E+01  0.399061836754E+01  0.378170480940E+01  0.357180723540E+01
  0.336240642884E+01  0.315499066483E+01  0.295103712309E+01  0.275199276820E+01  0.255925500529E+01
  0.237415244126E+01  0.219792608983E+01  0.203171135317E+01  0.187652111378E+01  0.173323027791E+01
  0.160256213065E+01  0.148507688711E+01  0.138116283492E+01  0.129103043522E+01  0.121470966593E+01
  0.115205075683E+01  0.110272830635E+01  0.106624861426E+01  0.104195993972E+01  0.102906532217E+01
  0.102663759445E+01  0.103363625439E+01  0.104892590557E+01  0.107129599029E+01  0.109948151521E+01
  0.113218442617E+01  0.116809524656E+01  0.120591456659E+01  0.124437396121E+01  0.128225592307E+01
  0.131841242081E+01  0.135178172932E+01  0.138140322542E+01  0.140642989570E+01  0.142613836310E+01
  0.143993629888E+01  0.144736714836E+01  0.144811216021E+01  0.144198976507E+01  0.142895240542E+01
  0.140908096762E+01  0.138257701247E+01  0.134975304094E+01  0.131102106409E+01  0.126687977478E+01
  0.121790063918E+01  0.116471323681E+01  0.110799018796E+01  0.104843200079E+01  0.986752164287E+00
  0.923662794675E+00  0.859861120369E+00  0.796017060088E+00  0.732762117954E+00  0.670679754137E+00
  0.610297413719E+00  0.552080262084E+00  0.496426698483E+00  0.443665647840E+00  0.394055592668E+00
  0.347785266647E+00  0.304975893699E+00  0.265684821887E+00  0.229910370292E+00  0.197597679486E+00
  0.168645334232E+00  0.142912510552E+00  0.120226392524E+00  0.100389607141E+00  0.831874410260E-01
  0.683946302557E-01  0.557815524745E-01  0.451196953620E-01  0.361863226910E-01  0.287683035051E-01
  0.226651068801E-01  0.176909914438E-01  0.136764353365E-01  0.104688629540E-01  0.793273924468E-02
  0.594913175932E-02  0.441488548658E-02  0.324158854977E-02  0.235447696000E-02  0.169131492569E-02
  0.120117941091E-02  0.843095931758E-03  0.584586150834E-03  0.400250348086E-03  0.270477815003E-03
  0.180322275130E-03  0.118544368654E-03  0.768096994155E-04  0.490272250594E-04  0.308119590303E-04
  0.190558605615E-04  0.115910709011E-04  0.693035080502E-05  0.407068610577E-05  0.234746352663E-05
  0.132825637888E-05  0.736962347481E-06  0.400694529203E-06  0.213356789871E-06  0.111183429931E-06
  0.566662418268E-07  0.282269048253E-07  0.137325986821E-07  0.652048641070E-08  0.301940911327E-08
  0.136252335781E-08  0.598685122117E-09  0.255931635848E-09  0.106351572656E-09  0.429206041596E-10
  0.168066311783E-10  0.637914453043E-11  0.234459603339E-11  0.833560821434E-12  0.286347513529E-12
  0.949387031680E-13
 kinetic energy-density
  0.124807024530E+01  0.126219089041E+01  0.127683141838E+01  0.129202676539E+01  0.130779726050E+01
  0.132416477237E+01  0.134115654142E+01  0.135879684242E+01  0.137711350930E+01  0.139613625203E+01
  0.141589541783E+01  0.143642343738E+01  0.145775471799E+01  0.147992621023E+01  0.150297496561E+01
  0.152694214777E+01  0.155187087223E+01  0.157780421503E+01  0.160479147470E+01  0.163288098151E+01
  0.166212573909E+01  0.169258041045E+01  0.172430379214E+01  0.175735647267E+01  0.179180334368E+01
  0.182771210309E+01  0.186515429186E+01  0.190420520311E+01  0.194494419761E+01  0.198745489985E+01
  0.203182542541E+01  0.207814871314E+01  0.212652264755E+01  0.217705070086E+01  0.222984161368E+01
  0.228501050560E+01  0.234267864227E+01  0.240297420315E+01  0.246603227613E+01  0.253199578061E+01
  0.260101548236E+01  0.267325045035E+01  0.274886933200E+01  0.282804995582E+01  0.291098051888E+01
  0.299785946002E+01  0.308889767294E+01  0.318431679903E+01  0.328435254551E+01  0.338925370459E+01
  0.349928301215E+01  0.361472109339E+01  0.373585974814E+01  0.386301464787E+01  0.399651336738E+01
  0.413670931724E+01  0.428396990606E+01  0.443868988531E+01  0.460128469746E+01  0.477219459104E+01
  0.495188898147E+01  0.514085839256E+01  0.533963118606E+01  0.554876055027E+01  0.576883679819E+01
  0.600048391368E+01  0.624436409264E+01  0.650117897556E+01  0.677167353553E+01  0.705663535671E+01
  0.735690293675E+01  0.767336172513E+01  0.800695463814E+01  0.835867893631E+01  0.872959381773E+01
  0.912082172691E+01  0.953355469520E+01  0.996905509425E+01  0.104286648108E+02  0.109138053974E+02
  0.114259857449E+02  0.119668062772E+02  0.125379652907E+02  0.131412644270E+02  0.137786148709E+02
  0.144520445512E+02  0.151637060696E+02  0.159158774522E+02  0.167109906463E+02  0.175516028619E+02
  0.184404465154E+02  0.193804096588E+02  0.203745650714E+02  0.214261611956E+02  0.225386522456E+02
  0.237156981329E+02  0.249611843623E+02  0.262792263042E+02  0.276741937208E+02  0.291507186705E+02
  0.307137135207E+02  0.323683839812E+02  0.341202546015E+02  0.359751782419E+02  0.379393598224E+02
  0.400193775424E+02  0.422222014318E+02  0.445552202613E+02  0.470262600837E+02  0.496436148498E+02
  0.524160683024E+02  0.553529265443E+02  0.584640421586E+02  0.617598508408E+02  0.652513972797E+02
  0.689503760182E+02  0.728691614313E+02  0.770208471535E+02  0.814192880693E+02  0.860791350362E+02
  0.910158845054E+02  0.962459187537E+02  0.101786553378E+03  0.107656088621E+03  0.113873859111E+03
  0.120460281482E+03  0.127436920928E+03  0.134826539820E+03  0.142653153738E+03  0.150942106632E+03
  0.159720128068E+03  0.169015382542E+03  0.178857571819E+03  0.189277976318E+03  0.200309535029E+03
  0.211986928645E+03  0.224346643765E+03  0.237427053551E+03  0.251268501158E+03  0.265913373479E+03
  0.281406187837E+03  0.297793671086E+03  0.315124839289E+03  0.333451086752E+03  0.352826264474E+03
  0.373306758756E+03  0.394951576218E+03  0.417822421701E+03  0.441983766221E+03  0.467502931161E+03
  0.494450143678E+03  0.522898613296E+03  0.552924574428E+03  0.584607345690E+03  0.618029372461E+03
  0.653276249255E+03  0.690436752546E+03  0.729602838700E+03  0.770869644642E+03  0.814335460104E+03
  0.860101697221E+03  0.908272814636E+03  0.958956251053E+03  0.101226230491E+04  0.106830401486E+04
  0.112719696893E+04  0.118905913929E+04  0.125401062074E+04  0.132217339438E+04  0.139367095523E+04
  0.146862802560E+04  0.154717008307E+04  0.162942294107E+04  0.171551221659E+04  0.180556276068E+04
  0.189969801163E+04  0.199803929092E+04  0.210070505066E+04  0.220780998567E+04  0.231946415100E+04
  0.243577192535E+04  0.255683094970E+04  0.268273094092E+04  0.281355245832E+04  0.294936554116E+04
  0.309022831196E+04  0.323618542979E+04  0.338726653640E+04  0.354348454995E+04  0.370483392966E+04
  0.387128884857E+04  0.404280130308E+04  0.421929917600E+04  0.440068424310E+04  0.458683015170E+04
  0.477758038866E+04  0.497274622744E+04  0.517210471450E+04  0.537539668379E+04  0.558232483226E+04
  0.579255189733E+04  0.600569894634E+04  0.622134381129E+04  0.643901973430E+04  0.665821420776E+04
  0.687836809018E+04  0.709887503624E+04  0.731908124747E+04  0.753828563071E+04  0.775574039297E+04
  0.797065208535E+04  0.818218321238E+04  0.838945435148E+04  0.859154692220E+04  0.878750655400E+04
  0.897634715646E+04  0.915705563225E+04  0.932859738433E+04  0.948992243465E+04  0.963997241277E+04
  0.977768807051E+04  0.990201769028E+04  0.100119259968E+05  0.101064037774E+05  0.101844779772E+05
  0.102452223233E+05  0.102877682770E+05  0.103113162678E+05  0.103151470590E+05  0.102986331047E+05
  0.102612496943E+05  0.102025858362E+05  0.101223545188E+05  0.100204023253E+05  0.989671803617E+04
  0.975144020677E+04  0.958486328660E+04  0.939744225597E+04  0.918979550932E+04  0.896270578694E+04
  0.871711900246E+04  0.845414085537E+04  0.817503105244E+04  0.788119509592E+04  0.757417361120E+04
  0.725562920271E+04  0.692733092805E+04  0.659113653902E+04  0.624897268204E+04  0.590281337549E+04
  0.555465713144E+04  0.520650307649E+04  0.486032722122E+04  0.451805805855E+04  0.418155401690E+04
  0.385258201075E+04  0.353279815689E+04  0.322373082757E+04  0.292676592438E+04  0.264313384013E+04
  0.237389732871E+04  0.211993968600E+04  0.188195337582E+04  0.166043031504E+04  0.145565591036E+04
  0.126770910168E+04  0.109646987025E+04  0.941634171600E+03  0.802734573221E+03  0.679163773956E+03
  0.570198230424E+03  0.475020205956E+03  0.392737888575E+03  0.322404033767E+03  0.263033665637E+03
  0.213621078003E+03  0.173156053034E+03  0.140639036078E+03  0.115094969053E+03  0.955855298217E+02
  0.812195990338E+02  0.711618529983E+02  0.646394492011E+02  0.609468294957E+02  0.594487185862E+02
  0.595814347705E+02  0.608526694438E+02  0.628399150257E+02  0.651877372247E+02  0.676040976548E+02
  0.698559324132E+02  0.717641805445E+02  0.731984491522E+02  0.740714778352E+02  0.743335526318E+02
  0.739669925369E+02  0.729808161683E+02  0.714056695681E+02  0.692890906145E+02  0.666911491577E+02
  0.636805098973E+02  0.603309292064E+02  0.567182023753E+02  0.529175696758E+02  0.490015416836E+02
  0.450381626245E+02  0.410896710991E+02  0.372115270015E+02  0.334517762181E+02  0.298507157069E+02
  0.264408214014E+02  0.232469013436E+02  0.202864374422E+02  0.175700816955E+02  0.151022736368E+02
  0.128819503134E+02  0.109033188730E+02  0.915666478449E+01  0.762916809733E+01  0.630570094681E+01
  0.516958089862E+01  0.420325766283E+01  0.338891547818E+01  0.270897982719E+01  0.214652447765E+01
  0.168558216939E+01  0.131136843552E+01  0.101043162610E+01  0.770741473785E+00  0.581722377984E+00
  0.434228280740E+00  0.320452329642E+00  0.233778569821E+00  0.168613979482E+00  0.120255258069E+00
  0.848092740469E-01  0.591315424677E-01  0.407441384253E-01  0.277318749718E-01  0.186358587855E-01
  0.123584200926E-01  0.808364805788E-02  0.521276590277E-02  0.331227277117E-02  0.207278578994E-02
  0.127678462668E-02  0.773695581025E-03  0.460952127577E-03  0.269841522020E-03  0.155115130236E-03
  0.875003895637E-04  0.484048549490E-04  0.262421827967E-04  0.139331572496E-04  0.724005758361E-05
  0.367942024048E-05  0.182751272838E-05  0.886501085002E-06  0.419685557632E-06  0.193764776515E-06
  0.871770549747E-07  0.381913661309E-07  0.162783288627E-07  0.674477375150E-08  0.271427061440E-08
  0.105990047053E-08  0.401220436630E-09  0.147084928235E-09  0.521630233218E-10  0.178768273052E-10
  0.591366598979E-11
 mkinetic energy-density pseudized
  0.278630225005E-06  0.297045564869E-06  0.316678018709E-06  0.337608028505E-06  0.359921352842E-06
  0.383709418293E-06  0.409069694036E-06  0.436106091216E-06  0.464929388718E-06  0.495657687067E-06
  0.528416892337E-06  0.563341232032E-06  0.600573805076E-06  0.640267168144E-06  0.682583960745E-06
  0.727697571623E-06  0.775792849201E-06  0.827066858974E-06  0.881729690969E-06  0.940005320565E-06
  0.100213252621E-05  0.106836586779E-05  0.113897672966E-05  0.121425443262E-05  0.129450741938E-05
  0.138006451835E-05  0.147127629100E-05  0.156851646825E-05  0.167218348180E-05  0.178270209662E-05
  0.190052515144E-05  0.202613541417E-05  0.216004756000E-05  0.230281028024E-05  0.245500853051E-05
  0.261726592754E-05  0.279024730437E-05  0.297466143445E-05  0.317126393574E-05  0.338086036679E-05
  0.360430952744E-05  0.384252697763E-05  0.409648878884E-05  0.436723554343E-05  0.465587659831E-05
  0.496359463041E-05  0.529165048258E-05  0.564138832975E-05  0.601424118654E-05  0.641173677888E-05
  0.683550380372E-05  0.728727860241E-05  0.776891227517E-05  0.828237826580E-05  0.882978044759E-05
  0.941336174375E-05  0.100355133175E-04  0.106987843697E-04  0.114058925836E-04  0.121597352607E-04
  0.129634011918E-04  0.138201833128E-04  0.147335921976E-04  0.157073704419E-04  0.167455079979E-04
  0.178522585233E-04  0.190321568092E-04  0.202900373618E-04  0.216310542104E-04  0.230607020259E-04
  0.245848386340E-04  0.262097090176E-04  0.279419709040E-04  0.297887220446E-04  0.317575292965E-04
  0.338564596271E-04  0.360941131671E-04  0.384796584483E-04  0.410228699703E-04  0.437341682500E-04
  0.466246625182E-04  0.497061962377E-04  0.529913956303E-04  0.564937214102E-04  0.602275239375E-04
  0.642081020157E-04  0.684517655764E-04  0.729759025059E-04  0.777990498888E-04  0.829409699601E-04
  0.884227310770E-04  0.942667940420E-04  0.100497104131E-03  0.107139189205E-03  0.114220264303E-03
  0.121769343148E-03  0.129817357029E-03  0.138397281526E-03  0.147544271625E-03  0.157295805754E-03
  0.167691839337E-03  0.178774968504E-03  0.190590604610E-03  0.203187160299E-03  0.216616247851E-03
  0.230932890650E-03  0.246195748619E-03  0.262467358557E-03  0.279814390354E-03  0.298307920147E-03
  0.318023721515E-03  0.339042575931E-03  0.361450603718E-03  0.385339616882E-03  0.410807495261E-03
  0.437958587527E-03  0.466904138690E-03  0.497762745849E-03  0.530660844063E-03  0.565733224320E-03
  0.603123585742E-03  0.642985124270E-03  0.685481160251E-03  0.730785807488E-03  0.779084686503E-03
  0.830575684924E-03  0.885469768108E-03  0.943991843323E-03  0.100638168103E-02  0.107289489702E-02
  0.114380399946E-02  0.121939950506E-02  0.129999112902E-02  0.138590905360E-02  0.147750528041E-02
  0.157515507208E-02  0.167925848917E-02  0.179024202854E-02  0.190856036998E-02  0.203469823814E-02
  0.216917238745E-02  0.231253371811E-02  0.246536953184E-02  0.262830593649E-02  0.280201040950E-02
  0.298719453052E-02  0.318461689452E-02  0.339508621707E-02  0.361946464469E-02  0.385867128363E-02
  0.411368596150E-02  0.438555323716E-02  0.467538667513E-02  0.498437340205E-02  0.531377896359E-02
  0.566495250181E-02  0.603933227388E-02  0.643845153464E-02  0.686394480706E-02  0.731755456593E-02
  0.780113836205E-02  0.831667641582E-02  0.886627971106E-02  0.945219862191E-02  0.100768321078E-01
  0.107427375135E-01  0.114526410146E-01  0.122094487498E-01  0.130162586857E-01  0.138763732611E-01
  0.147933128638E-01  0.157708301911E-01  0.168129255551E-01  0.179238631916E-01  0.191081886403E-01
  0.203707472643E-01  0.217167039838E-01  0.231515643031E-01  0.246811967145E-01  0.263118565686E-01
  0.280502115048E-01  0.299033685456E-01  0.318789029586E-01  0.339848890031E-01  0.362299326809E-01
  0.386232066204E-01  0.411744872309E-01  0.438941942724E-01  0.467934329947E-01  0.498840390095E-01
  0.531786260694E-01  0.566906369372E-01  0.604343975409E-01  0.644251746218E-01  0.686792370938E-01
  0.732139213458E-01  0.780477007335E-01  0.832002595193E-01  0.886925715348E-01  0.945469838561E-01
  0.100787305797E+00  0.107438903546E+00  0.114528800776E+00  0.122085785607E+00  0.130140524273E+00
  0.138725681907E+00  0.147876050851E+00  0.157628686931E+00  0.168023054154E+00  0.179101178293E+00
  0.190907809879E+00  0.203490597092E+00  0.216900269113E+00  0.231190830481E+00  0.246419767039E+00
  0.262648264060E+00  0.279941437176E+00  0.298368576719E+00  0.318003406127E+00  0.338924355066E+00
  0.361214847900E+00  0.384963608187E+00  0.410264979830E+00  0.437219265537E+00  0.465933083186E+00
  0.496519740703E+00  0.529099629987E+00  0.563800640381E+00  0.600758592109E+00  0.640117690038E+00
  0.682030997962E+00  0.726660933561E+00  0.774179783931E+00  0.824770241485E+00  0.878625959744E+00
  0.935952128278E+00  0.996966065784E+00  0.106189782987E+01  0.113099084174E+01  0.120450252344E+01
  0.128270494475E+01  0.136588547629E+01  0.145434744432E+01  0.154841078229E+01  0.164841267277E+01
  0.175470817266E+01  0.186767081288E+01  0.198769316267E+01  0.211518734671E+01  0.225058550149E+01
  0.239434015532E+01  0.254692451386E+01  0.270883263060E+01  0.288057943860E+01  0.306270061664E+01
  0.325575225915E+01  0.346031031543E+01  0.367696975922E+01  0.390634344454E+01  0.414906059889E+01
  0.440576489872E+01  0.467711206615E+01  0.496376691912E+01  0.526639980012E+01  0.558568230120E+01
  0.592228219532E+01  0.627685747590E+01  0.665004939869E+01  0.704247441194E+01  0.745471485357E+01
  0.788730828685E+01  0.834073534065E+01  0.881540591576E+01  0.931164361699E+01  0.982966827150E+01
  0.103695763983E+02  0.109313195040E+02  0.115146800947E+02  0.121192453187E+02  0.127443781861E+02
  0.133891863572E+02  0.140524885496E+02  0.147327786869E+02  0.154281880085E+02  0.161364454754E+02
  0.168548369464E+02  0.175801637757E+02  0.183087016809E+02  0.190361609720E+02  0.197576495103E+02
  0.204676400792E+02  0.211599442064E+02  0.218276948703E+02  0.224633409469E+02  0.230586566993E+02
  0.236047700697E+02  0.240922139686E+02  0.245110051529E+02  0.248507555897E+02  0.251008213647E+02
  0.252504941458E+02  0.252892398598E+02  0.252069884767E+02  0.249944774995E+02  0.246436497677E+02
  0.241481033461E+02  0.235035874007E+02  0.227085328916E+02  0.217646004648E+02  0.206772200007E+02
  0.194560868090E+02  0.181155685567E+02  0.166749649325E+02  0.151585493299E+02  0.135953093828E+02
  0.120182923674E+02  0.104634542513E+02  0.896791016152E+01  0.756749264710E+01  0.629354651641E+01
  0.516893008366E+01  0.420325766283E+01  0.338891547818E+01  0.270897982719E+01  0.214652447765E+01
  0.168558216939E+01  0.131136843552E+01  0.101043162610E+01  0.770741473785E+00  0.581722377984E+00
  0.434228280740E+00  0.320452329642E+00  0.233778569821E+00  0.168613979482E+00  0.120255258069E+00
  0.848092740469E-01  0.591315424677E-01  0.407441384253E-01  0.277318749718E-01  0.186358587855E-01
  0.123584200926E-01  0.808364805788E-02  0.521276590277E-02  0.331227277117E-02  0.207278578994E-02
  0.127678462668E-02  0.773695581025E-03  0.460952127577E-03  0.269841522020E-03  0.155115130236E-03
  0.875003895637E-04  0.484048549490E-04  0.262421827967E-04  0.139331572496E-04  0.724005758361E-05
  0.367942024048E-05  0.182751272838E-05  0.886501085002E-06  0.419685557632E-06  0.193764776515E-06
  0.871770549747E-07  0.381913661309E-07  0.162783288627E-07  0.674477375150E-08  0.271427061440E-08
  0.105990047053E-08  0.401220436630E-09  0.147084928235E-09  0.521630233218E-10  0.178768273052E-10
  0.591366598979E-11
 local pseudopotential core
 -0.264009167912E+03 -0.264010737119E+03 -0.264012256902E+03 -0.264013728820E+03 -0.264015154379E+03
 -0.264016535039E+03 -0.264017872213E+03 -0.264019167272E+03 -0.264020421541E+03 -0.264021636304E+03
 -0.264022812806E+03 -0.264023952251E+03 -0.264025055805E+03 -0.264026124600E+03 -0.264027159727E+03
 -0.264028162250E+03 -0.264029133193E+03 -0.264030073550E+03 -0.264030984285E+03 -0.264031866330E+03
 -0.264032720586E+03 -0.264033547931E+03 -0.264034349210E+03 -0.264035125243E+03 -0.264035876825E+03
 -0.264036604725E+03 -0.264037309689E+03 -0.264037992437E+03 -0.264038653669E+03 -0.264039294061E+03
 -0.264039914268E+03 -0.264040514925E+03 -0.264041096648E+03 -0.264041660029E+03 -0.264042205647E+03
 -0.264042734058E+03 -0.264043245804E+03 -0.264043741408E+03 -0.264044221376E+03 -0.264044686199E+03
 -0.264045136352E+03 -0.264045572295E+03 -0.264045994474E+03 -0.264046403318E+03 -0.264046799247E+03
 -0.264047182664E+03 -0.264047553959E+03 -0.264047913513E+03 -0.264048261691E+03 -0.264048598848E+03
 -0.264048925328E+03 -0.264049241464E+03 -0.264049547575E+03 -0.264049843975E+03 -0.264050130964E+03
 -0.264050408833E+03 -0.264050677865E+03 -0.264050938331E+03 -0.264051190496E+03 -0.264051434614E+03
 -0.264051670933E+03 -0.264051899689E+03 -0.264052121114E+03 -0.264052335429E+03 -0.264052542851E+03
 -0.264052743586E+03 -0.264052937834E+03 -0.264053125790E+03 -0.264053307639E+03 -0.264053483563E+03
 -0.264053653733E+03 -0.264053818318E+03 -0.264053977478E+03 -0.264054131368E+03 -0.264054280137E+03
 -0.264054423929E+03 -0.264054562880E+03 -0.264054697123E+03 -0.264054826783E+03 -0.264054951983E+03
 -0.264055072836E+03 -0.264055189454E+03 -0.264055301942E+03 -0.264055410399E+03 -0.264055514920E+03
 -0.264055615595E+03 -0.264055712507E+03 -0.264055805737E+03 -0.264055895359E+03 -0.264055981442E+03
 -0.264056064050E+03 -0.264056143242E+03 -0.264056219071E+03 -0.264056291588E+03 -0.264056360833E+03
 -0.264056426846E+03 -0.264056489658E+03 -0.264056549297E+03 -0.264056605782E+03 -0.264056659130E+03
 -0.264056709350E+03 -0.264056756443E+03 -0.264056800406E+03 -0.264056841230E+03 -0.264056878896E+03
 -0.264056913382E+03 -0.264056944654E+03 -0.264056972675E+03 -0.264056997395E+03 -0.264057018760E+03
 -0.264057036704E+03 -0.264057051155E+03 -0.264057062028E+03 -0.264057069229E+03 -0.264057072655E+03
 -0.264057072190E+03 -0.264057067705E+03 -0.264057059062E+03 -0.264057046106E+03 -0.264057028672E+03
 -0.264057006575E+03 -0.264056979621E+03 -0.264056947593E+03 -0.264056910261E+03 -0.264056867374E+03
 -0.264056818662E+03 -0.264056763835E+03 -0.264056702580E+03 -0.264056634559E+03 -0.264056559413E+03
 -0.264056476751E+03 -0.264056386159E+03 -0.264056287189E+03 -0.264056179363E+03 -0.264056062169E+03
 -0.264055935059E+03 -0.264055797444E+03 -0.264055648698E+03 -0.264055488148E+03 -0.264055315077E+03
 -0.264055128717E+03 -0.264054928249E+03 -0.264054712796E+03 -0.264054481422E+03 -0.264054233129E+03
 -0.264053966849E+03 -0.264053681443E+03 -0.264053375696E+03 -0.264053048310E+03 -0.264052697899E+03
 -0.264052322987E+03 -0.264051921994E+03 -0.264051493240E+03 -0.264051034929E+03 -0.264050545147E+03
 -0.264050021850E+03 -0.264049462860E+03 -0.264048865853E+03 -0.264048228350E+03 -0.264047547708E+03
 -0.264046821108E+03 -0.264046045543E+03 -0.264045217808E+03 -0.264044334484E+03 -0.264043391925E+03
 -0.264042386243E+03 -0.264041313294E+03 -0.264040168659E+03 -0.264038947624E+03 -0.264037645165E+03
 -0.264036255924E+03 -0.264034774191E+03 -0.264033193874E+03 -0.264031508482E+03 -0.264029711090E+03
 -0.264027794320E+03 -0.264025750302E+03 -0.264023570648E+03 -0.264021246414E+03 -0.264018768065E+03
 -0.264016125438E+03 -0.264013307695E+03 -0.264010303283E+03 -0.264007099887E+03 -0.264003684377E+03
 -0.264000042756E+03 -0.263996160104E+03 -0.263992020512E+03 -0.263987607025E+03 -0.263982901566E+03
 -0.263977884865E+03 -0.263972536381E+03 -0.263966834216E+03 -0.263960755028E+03 -0.263954273934E+03
 -0.263947364412E+03 -0.263939998188E+03 -0.263932145124E+03 -0.263923773096E+03 -0.263914847862E+03
 -0.263905332922E+03 -0.263895189373E+03 -0.263884375746E+03 -0.263872847844E+03 -0.263860558557E+03
 -0.263847457674E+03 -0.263833491682E+03 -0.263818603542E+03 -0.263802732469E+03 -0.263785813677E+03
 -0.263767778123E+03 -0.263748552228E+03 -0.263728057578E+03 -0.263706210615E+03 -0.263682922293E+03
 -0.263658097728E+03 -0.263631635815E+03 -0.263603428825E+03 -0.263573361974E+03 -0.263541312965E+03
 -0.263507151504E+03 -0.263470738781E+03 -0.263431926921E+03 -0.263390558401E+03 -0.263346465426E+03
 -0.263299469273E+03 -0.263249379587E+03 -0.263195993641E+03 -0.263139095544E+03 -0.263078455400E+03
 -0.263013828427E+03 -0.262944954006E+03 -0.262871554685E+03 -0.262793335119E+03 -0.262709980947E+03
 -0.262621157606E+03 -0.262526509070E+03 -0.262425656523E+03 -0.262318196951E+03 -0.262203701654E+03
 -0.262081714684E+03 -0.261951751183E+03 -0.261813295643E+03 -0.261665800066E+03 -0.261508682029E+03
 -0.261341322656E+03 -0.261163064475E+03 -0.260973209187E+03 -0.260771015312E+03 -0.260555695738E+03
 -0.260326415159E+03 -0.260082287400E+03 -0.259822372634E+03 -0.259545674498E+03 -0.259251137095E+03
 -0.258937641904E+03 -0.258604004591E+03 -0.258248971738E+03 -0.257871217496E+03 -0.257469340168E+03
 -0.257041858759E+03 -0.256587209484E+03 -0.256103742282E+03 -0.255589717348E+03 -0.255043301728E+03
 -0.254462566006E+03 -0.253845481130E+03 -0.253189915442E+03 -0.252493631955E+03 -0.251754285964E+03
 -0.250969423065E+03 -0.250136477677E+03 -0.249252772174E+03 -0.248315516753E+03 -0.247321810174E+03
 -0.246268641522E+03 -0.245152893192E+03 -0.243971345264E+03 -0.242720681530E+03 -0.241397497404E+03
 -0.239998310009E+03 -0.238519570768E+03 -0.236957680852E+03 -0.235309009897E+03 -0.233569918444E+03
 -0.231736784605E+03 -0.229806035542E+03 -0.227774184396E+03 -0.225637873396E+03 -0.223393923991E+03
 -0.221039394919E+03 -0.218571649335E+03 -0.215988432216E+03 -0.213287959543E+03 -0.210469020984E+03
 -0.207531098201E+03 -0.204474501320E+03 -0.201300526732E+03 -0.198011640035E+03 -0.194611688587E+03
 -0.191106148288E+03 -0.187502407743E+03 -0.183810086917E+03 -0.180041370465E+03 -0.176211294232E+03
 -0.172337830931E+03 -0.168441436120E+03 -0.164543399721E+03 -0.160661953406E+03 -0.156804981986E+03
 -0.152959361779E+03 -0.149080677939E+03 -0.145092683402E+03 -0.140907342817E+03 -0.136464890191E+03
 -0.131772117616E+03 -0.126911946522E+03 -0.122036214366E+03 -0.117405882386E+03 -0.113369538128E+03
 -0.109908461936E+03 -0.105820821580E+03 -0.101892862823E+03 -0.982271100131E+02 -0.948750993839E+02
 -0.918602480447E+02 -0.891953229869E+02 -0.868994005788E+02 -0.843325577157E+02 -0.816751236156E+02
 -0.791017822131E+02 -0.766097894341E+02 -0.741965047912E+02 -0.718593925178E+02 -0.695960082671E+02
 -0.674039970527E+02 -0.652810818294E+02 -0.632250653796E+02 -0.612338350189E+02 -0.593053346022E+02
 -0.574375814151E+02 -0.556286594128E+02 -0.538767111480E+02 -0.521799461732E+02 -0.505366184420E+02
 -0.489450426214E+02 -0.474035988137E+02 -0.459106924812E+02 -0.444648112947E+02 -0.430644621765E+02
 -0.417082154675E+02 -0.403946804100E+02 -0.391225151254E+02 -0.378904134519E+02 -0.366971153942E+02
 -0.355413979614E+02 -0.344220784567E+02 -0.333380099279E+02 -0.322880824277E+02 -0.312712207299E+02
 -0.302863834451E+02 -0.293325620187E+02 -0.284087796346E+02 -0.275140902798E+02 -0.266475776854E+02
 -0.258083545011E+02 -0.249955612887E+02 -0.242083656814E+02 -0.234459615381E+02 -0.227075681055E+02
 -0.219924291981E+02
 pspotential valence only
 -0.194667938352E+03 -0.194669507563E+03 -0.194671027353E+03 -0.194672499277E+03 -0.194673924842E+03
 -0.194675305509E+03 -0.194676642691E+03 -0.194677937757E+03 -0.194679192034E+03 -0.194680406806E+03
 -0.194681583317E+03 -0.194682722772E+03 -0.194683826337E+03 -0.194684895142E+03 -0.194685930283E+03
 -0.194686932818E+03 -0.194687903774E+03 -0.194688844147E+03 -0.194689754897E+03 -0.194690636958E+03
 -0.194691491232E+03 -0.194692318596E+03 -0.194693119895E+03 -0.194693895949E+03 -0.194694647554E+03
 -0.194695375479E+03 -0.194696080469E+03 -0.194696763244E+03 -0.194697424506E+03 -0.194698064929E+03
 -0.194698685170E+03 -0.194699285863E+03 -0.194699867623E+03 -0.194700431046E+03 -0.194700976707E+03
 -0.194701505165E+03 -0.194702016960E+03 -0.194702512616E+03 -0.194702992640E+03 -0.194703457523E+03
 -0.194703907740E+03 -0.194704343751E+03 -0.194704766001E+03 -0.194705174923E+03 -0.194705570934E+03
 -0.194705954438E+03 -0.194706325827E+03 -0.194706685481E+03 -0.194707033765E+03 -0.194707371036E+03
 -0.194707697636E+03 -0.194708013900E+03 -0.194708320149E+03 -0.194708616695E+03 -0.194708903840E+03
 -0.194709181876E+03 -0.194709451085E+03 -0.194709711740E+03 -0.194709964106E+03 -0.194710208439E+03
 -0.194710444987E+03 -0.194710673987E+03 -0.194710895672E+03 -0.194711110265E+03 -0.194711317982E+03
 -0.194711519032E+03 -0.194711713617E+03 -0.194711901931E+03 -0.194712084163E+03 -0.194712260493E+03
 -0.194712431098E+03 -0.194712596145E+03 -0.194712755799E+03 -0.194712910215E+03 -0.194713059545E+03
 -0.194713203935E+03 -0.194713343524E+03 -0.194713478446E+03 -0.194713608831E+03 -0.194713734803E+03
 -0.194713856480E+03 -0.194713973976E+03 -0.194714087400E+03 -0.194714196854E+03 -0.194714302439E+03
 -0.194714404248E+03 -0.194714502369E+03 -0.194714596889E+03 -0.194714687884E+03 -0.194714775432E+03
 -0.194714859602E+03 -0.194714940459E+03 -0.194715018064E+03 -0.194715092472E+03 -0.194715163735E+03
 -0.194715231898E+03 -0.194715297004E+03 -0.194715359087E+03 -0.194715418178E+03 -0.194715474304E+03
 -0.194715527485E+03 -0.194715577736E+03 -0.194715625066E+03 -0.194715669478E+03 -0.194715710971E+03
 -0.194715749535E+03 -0.194715785156E+03 -0.194715817812E+03 -0.194715847474E+03 -0.194715874108E+03
 -0.194715897670E+03 -0.194715918108E+03 -0.194715935365E+03 -0.194715949373E+03 -0.194715960055E+03
 -0.194715967324E+03 -0.194715971087E+03 -0.194715971235E+03 -0.194715967652E+03 -0.194715960210E+03
 -0.194715948766E+03 -0.194715933168E+03 -0.194715913248E+03 -0.194715888823E+03 -0.194715859696E+03
 -0.194715825655E+03 -0.194715786467E+03 -0.194715741885E+03 -0.194715691640E+03 -0.194715635443E+03
 -0.194715572984E+03 -0.194715503930E+03 -0.194715427921E+03 -0.194715344574E+03 -0.194715253477E+03
 -0.194715154188E+03 -0.194715046233E+03 -0.194714929108E+03 -0.194714802268E+03 -0.194714665136E+03
 -0.194714517090E+03 -0.194714357467E+03 -0.194714185559E+03 -0.194714000609E+03 -0.194713801808E+03
 -0.194713588291E+03 -0.194713359136E+03 -0.194713113356E+03 -0.194712849901E+03 -0.194712567647E+03
 -0.194712265396E+03 -0.194711941867E+03 -0.194711595697E+03 -0.194711225427E+03 -0.194710829505E+03
 -0.194710406272E+03 -0.194709953960E+03 -0.194709470681E+03 -0.194708954423E+03 -0.194708403039E+03
 -0.194707814240E+03 -0.194707185585E+03 -0.194706514468E+03 -0.194705798114E+03 -0.194705033560E+03
 -0.194704217649E+03 -0.194703347013E+03 -0.194702418062E+03 -0.194701426967E+03 -0.194700369645E+03
 -0.194699241744E+03 -0.194698038623E+03 -0.194696755333E+03 -0.194695386598E+03 -0.194693926794E+03
 -0.194692369923E+03 -0.194690709591E+03 -0.194688938983E+03 -0.194687050831E+03 -0.194685037386E+03
 -0.194682890390E+03 -0.194680601037E+03 -0.194678159939E+03 -0.194675557088E+03 -0.194672781817E+03
 -0.194669822751E+03 -0.194666667766E+03 -0.194663303939E+03 -0.194659717490E+03 -0.194655893733E+03
 -0.194651817011E+03 -0.194647470634E+03 -0.194642836812E+03 -0.194637896581E+03 -0.194632629727E+03
 -0.194627014701E+03 -0.194621028536E+03 -0.194614646750E+03 -0.194607843250E+03 -0.194600590220E+03
 -0.194592858016E+03 -0.194584615039E+03 -0.194575827614E+03 -0.194566459845E+03 -0.194556473478E+03
 -0.194545827742E+03 -0.194534479185E+03 -0.194522381502E+03 -0.194509485344E+03 -0.194495738120E+03
 -0.194481083790E+03 -0.194465462637E+03 -0.194448811027E+03 -0.194431061156E+03 -0.194412140779E+03
 -0.194391972921E+03 -0.194370475574E+03 -0.194347561365E+03 -0.194323137217E+03 -0.194297103975E+03
 -0.194269356018E+03 -0.194239780843E+03 -0.194208258624E+03 -0.194174661740E+03 -0.194138854281E+03
 -0.194100691521E+03 -0.194060019350E+03 -0.194016673688E+03 -0.193970479851E+03 -0.193921251880E+03
 -0.193868791839E+03 -0.193812889062E+03 -0.193753319358E+03 -0.193689844176E+03 -0.193622209712E+03
 -0.193550145977E+03 -0.193473365800E+03 -0.193391563791E+03 -0.193304415230E+03 -0.193211574911E+03
 -0.193112675920E+03 -0.193007328347E+03 -0.192895117936E+03 -0.192775604670E+03 -0.192648321286E+03
 -0.192512771717E+03 -0.192368429475E+03 -0.192214735952E+03 -0.192051098660E+03 -0.191876889398E+03
 -0.191691442352E+03 -0.191494052133E+03 -0.191283971752E+03 -0.191060410539E+03 -0.190822532017E+03
 -0.190569451724E+03 -0.190300235019E+03 -0.190013894853E+03 -0.189709389547E+03 -0.189385620577E+03
 -0.189041430394E+03 -0.188675600307E+03 -0.188286848448E+03 -0.187873827863E+03 -0.187435124761E+03
 -0.186969256974E+03 -0.186474672671E+03 -0.185949749397E+03 -0.185392793492E+03 -0.184802039987E+03
 -0.184175653049E+03 -0.183511727079E+03 -0.182808288595E+03 -0.182063298995E+03 -0.181274658385E+03
 -0.180440210592E+03 -0.179557749586E+03 -0.178625027471E+03 -0.177639764303E+03 -0.176599659971E+03
 -0.175502408408E+03 -0.174345714461E+03 -0.173127313731E+03 -0.171844995773E+03 -0.170496631054E+03
 -0.169080202119E+03 -0.167593839453E+03 -0.166035862586E+03 -0.164404827016E+03 -0.162699577624E+03
 -0.160919309276E+03 -0.159063635434E+03 -0.157132665664E+03 -0.155127093079E+03 -0.153048292930E+03
 -0.150898433756E+03 -0.148680602873E+03 -0.146398948327E+03 -0.144058839961E+03 -0.141667052606E+03
 -0.139231974353E+03 -0.136763841009E+03 -0.134274991590E+03 -0.131780122369E+03 -0.129296475064E+03
 -0.126843801991E+03 -0.124443766032E+03 -0.122118117467E+03 -0.119884595195E+03 -0.117749398631E+03
 -0.115696252939E+03 -0.113675821786E+03 -0.111604836133E+03 -0.109385793424E+03 -0.106946673523E+03
 -0.104278914745E+03 -0.101446736952E+03 -0.985797902963E+02 -0.959133901491E+02 -0.937672729817E+02
 -0.920912036356E+02 -0.896500502248E+02 -0.871962249292E+02 -0.847994993761E+02 -0.824816627928E+02
 -0.802415138558E+02 -0.780744818453E+02 -0.759915557586E+02 -0.739925807725E+02 -0.720771685878E+02
 -0.702172997360E+02 -0.683626335140E+02 -0.664615421803E+02 -0.644950965103E+02 -0.624914035377E+02
 -0.605018712297E+02 -0.585674397201E+02 -0.567062849142E+02 -0.549203417668E+02 -0.532049247005E+02
 -0.515543846921E+02 -0.499641825100E+02 -0.484311459892E+02 -0.469532199673E+02 -0.455289765338E+02
 -0.441573295681E+02 -0.428371333147E+02 -0.415669854412E+02 -0.403449834260E+02 -0.391686502205E+02
 -0.380349662077E+02 -0.369404903979E+02 -0.358816089059E+02 -0.348547877452E+02 -0.338567934378E+02
 -0.328848665114E+02 -0.319368051300E+02 -0.310109856142E+02 -0.301063339150E+02 -0.292222646466E+02
 -0.283586046831E+02 -0.275155097015E+02 -0.266933781735E+02 -0.258927640295E+02 -0.251142880431E+02
 -0.243585488047E+02 -0.236260364220E+02 -0.229170549646E+02 -0.222316617799E+02 -0.215696318062E+02
 -0.209304522607E+02
 core charge-density (pseudized)
  0.359430116867E-08  0.383185715383E-08  0.408511378376E-08  0.435510875172E-08  0.464294833459E-08
  0.494981192577E-08  0.527695686756E-08  0.562572360305E-08  0.599754116842E-08  0.639393304827E-08
  0.681652341794E-08  0.726704379843E-08  0.774734015109E-08  0.825938044129E-08  0.880526270192E-08
  0.938722362992E-08  0.100076477509E-07  0.106690771893E-07  0.113742220850E-07  0.121259716971E-07
  0.129274062430E-07  0.137818095191E-07  0.146926823556E-07  0.156637569608E-07  0.166990122139E-07
  0.178026899676E-07  0.189793124287E-07  0.202337006875E-07  0.215709944716E-07  0.229966732057E-07
  0.245165784625E-07  0.261369378984E-07  0.278643907701E-07  0.297060151391E-07  0.316693568724E-07
  0.337624605616E-07  0.359939024844E-07  0.383728257452E-07  0.409089777377E-07  0.436127500843E-07
  0.464952212141E-07  0.495682017562E-07  0.528442829319E-07  0.563368881465E-07  0.600603279895E-07
  0.640298588716E-07  0.682617455354E-07  0.727733276990E-07  0.775830911032E-07  0.827107432551E-07
  0.881772941773E-07  0.940051424942E-07  0.100218167208E-06  0.106841825540E-06  0.113903257239E-06
  0.121431395783E-06  0.129457086931E-06  0.138013215111E-06  0.147134838159E-06  0.156859330963E-06
  0.167226538605E-06  0.178278939623E-06  0.190061820055E-06  0.202623459000E-06  0.216015326433E-06
  0.230292294096E-06  0.245512860331E-06  0.261739389766E-06  0.279038368850E-06  0.297480678270E-06
  0.317141883378E-06  0.338102543804E-06  0.360448543549E-06  0.384271442872E-06  0.409668853453E-06
  0.436744838339E-06  0.465610338330E-06  0.496383626543E-06  0.529190793015E-06  0.564166261343E-06
  0.601453339459E-06  0.641204806816E-06  0.683583540374E-06  0.728763181963E-06  0.776928849748E-06
  0.828277896725E-06  0.883020719332E-06  0.941381619513E-06  0.100359972376E-05  0.106992996286E-05
  0.114064411646E-05  0.121603192662E-05  0.129640228492E-05  0.138208449815E-05  0.147342963751E-05
  0.157081197708E-05  0.167463052727E-05  0.178531066972E-05  0.190330590012E-05  0.202909968635E-05
  0.216320744930E-05  0.230617867467E-05  0.245859916431E-05  0.262109343634E-05  0.279432728393E-05
  0.297901050308E-05  0.317589980083E-05  0.338580189547E-05  0.360957682182E-05  0.384814145476E-05
  0.410247326577E-05  0.437361432761E-05  0.466267558369E-05  0.497084139958E-05  0.529937441523E-05
  0.564962071793E-05  0.602301535705E-05  0.642108822317E-05  0.684547031576E-05  0.729790042499E-05
  0.778023225504E-05  0.829444201814E-05  0.884263653035E-05  0.942706184229E-05  0.100501124401E-04
  0.107143410545E-04  0.114224691175E-04  0.121773979104E-04  0.129822204486E-04  0.138402341504E-04
  0.147549543442E-04  0.157301286671E-04  0.167697524148E-04  0.178780849062E-04  0.190596669278E-04
  0.203193393311E-04  0.216622628588E-04  0.230939392796E-04  0.246202339189E-04  0.262473996788E-04
  0.279821026425E-04  0.298314493709E-04  0.318030160011E-04  0.339048792666E-04  0.361456495645E-04
  0.385345062076E-04  0.410812350021E-04  0.437962683063E-04  0.466907277338E-04  0.497764696741E-04
  0.530661338184E-04  0.565731948861E-04  0.603120177654E-04  0.642979162906E-04  0.685472158970E-04
  0.730773204080E-04  0.779067832268E-04  0.830553832217E-04  0.885442056145E-04  0.943957282006E-04
  0.100633913251E-03  0.107284305468E-03  0.114374136401E-03  0.121932435727E-03  0.129990149870E-03
  0.138580268422E-03  0.147737958891E-03  0.157500710306E-03  0.167908486272E-03  0.179003888095E-03
  0.190832328615E-03  0.203442217475E-03  0.216885158552E-03  0.231216160352E-03  0.246493860208E-03
  0.262780763193E-03  0.280143496687E-03  0.298653081631E-03  0.318385221541E-03  0.339420610441E-03
  0.361845260931E-03  0.385750853704E-03  0.411235109885E-03  0.438402187667E-03  0.467363104815E-03
  0.498236188686E-03  0.531147555541E-03  0.566231621015E-03  0.603631643734E-03  0.643500304201E-03
  0.686000321172E-03  0.731305107909E-03  0.779599470829E-03  0.831080353208E-03  0.885957626774E-03
  0.944454934176E-03  0.100681058550E-02  0.107327851219E-02  0.114412928187E-02  0.121965117790E-02
  0.130015134748E-02  0.138595702261E-02  0.147741681821E-02  0.157490211199E-02  0.167880851107E-02
  0.178955741031E-02  0.190759764781E-02  0.203340726318E-02  0.216749536445E-02  0.231040410980E-02
  0.246271081057E-02  0.262503016213E-02  0.279801660973E-02  0.298236685637E-02  0.317882252032E-02
  0.338817294987E-02  0.361125820325E-02  0.384897220192E-02  0.410226606524E-02  0.437215163526E-02
  0.465970519974E-02  0.496607142201E-02  0.529246748612E-02  0.564018746541E-02  0.601060692248E-02
  0.640518774838E-02  0.682548324785E-02  0.727314347729E-02  0.774992084085E-02  0.825767594923E-02
  0.879838374412E-02  0.937413988995E-02  0.998716743210E-02  0.106398237189E-01  0.113346075812E-01
  0.120741667606E-01  0.128613055730E-01  0.136989927893E-01  0.145903697103E-01  0.155387584056E-01
  0.165476700802E-01  0.176208135223E-01  0.187621035782E-01  0.199756695865E-01  0.212658636946E-01
  0.226372689609E-01  0.240947071358E-01  0.256432459892E-01  0.272882060372E-01  0.290351664911E-01
  0.308899702292E-01  0.328587275591E-01  0.349478185046E-01  0.371638933142E-01  0.395138708443E-01
  0.420049344259E-01  0.446445247688E-01  0.474403294026E-01  0.504002680899E-01  0.535324735795E-01
  0.568452669931E-01  0.603471270581E-01  0.640466523157E-01  0.679525153395E-01  0.720734079052E-01
  0.764179759534E-01  0.809947430804E-01  0.858120211948E-01  0.908778068688E-01  0.961996618195E-01
  0.101784575867E+00  0.107638810635E+00  0.113767722213E+00  0.120175560960E+00  0.126865246654E+00
  0.133838117224E+00  0.141093649464E+00  0.148629150280E+00  0.156439417356E+00  0.164516368532E+00
  0.172848639749E+00  0.181421152185E+00  0.190214650116E+00  0.199205212300E+00  0.208363741114E+00
  0.217655435548E+00  0.227039256298E+00  0.236467393880E+00  0.245884753690E+00  0.255228475541E+00
  0.264427509235E+00  0.273402272343E+00  0.282064421372E+00  0.290316773005E+00  0.298053417832E+00
  0.305160074875E+00  0.311514740865E+00  0.316988693358E+00  0.321447910768E+00  0.324754974574E+00
  0.326771518404E+00  0.327361284337E+00  0.326393837091E+00  0.323748970274E+00  0.319321813549E+00
  0.313028613311E+00  0.304813110063E+00  0.294653370689E+00  0.282568851305E+00  0.268627364658E+00
  0.252951504605E+00  0.235723939989E+00  0.217190834779E+00  0.197662487316E+00  0.177510120536E+00
  0.157157614462E+00  0.137066877049E+00  0.117715533296E+00  0.995657189984E-01  0.830230481027E-01
  0.683853439066E-01  0.557815524745E-01  0.451196953620E-01  0.361863226910E-01  0.287683035051E-01
  0.226651068801E-01  0.176909914438E-01  0.136764353365E-01  0.104688629540E-01  0.793273924468E-02
  0.594913175932E-02  0.441488548658E-02  0.324158854977E-02  0.235447696000E-02  0.169131492569E-02
  0.120117941091E-02  0.843095931758E-03  0.584586150834E-03  0.400250348086E-03  0.270477815003E-03
  0.180322275130E-03  0.118544368654E-03  0.768096994155E-04  0.490272250594E-04  0.308119590303E-04
  0.190558605615E-04  0.115910709011E-04  0.693035080502E-05  0.407068610577E-05  0.234746352663E-05
  0.132825637888E-05  0.736962347481E-06  0.400694529203E-06  0.213356789871E-06  0.111183429931E-06
  0.566662418268E-07  0.282269048253E-07  0.137325986821E-07  0.652048641070E-08  0.301940911327E-08
  0.136252335781E-08  0.598685122117E-09  0.255931635848E-09  0.106351572656E-09  0.429206041596E-10
  0.168066311783E-10  0.637914453043E-11  0.234459603339E-11  0.833560821434E-12  0.286347513529E-12
  0.949387031680E-13
 pseudo wavefunction
  0.516125392885E-08  0.550237358063E-08  0.586603864833E-08  0.625373921254E-08  0.666706383687E-08
  0.710770607689E-08  0.757747141932E-08  0.807828467984E-08  0.861219788978E-08  0.918139870416E-08
  0.978821936536E-08  0.104351462593E-07  0.111248301029E-07  0.118600968056E-07  0.126439590478E-07
  0.134796286252E-07  0.143705296086E-07  0.153203123743E-07  0.163328685601E-07  0.174123470120E-07
  0.185631707828E-07  0.197900552556E-07  0.210980274645E-07  0.224924466922E-07  0.239790264292E-07
  0.255638577845E-07  0.272534344428E-07  0.290546792719E-07  0.309749726888E-07  0.330221828997E-07
  0.352046981392E-07  0.375314610408E-07  0.400120052776E-07  0.426564946260E-07  0.454757646109E-07
  0.484813669025E-07  0.516856166488E-07  0.551016429351E-07  0.587434425794E-07  0.626259374825E-07
  0.667650357694E-07  0.711776969708E-07  0.758820015133E-07  0.808972248018E-07  0.862439161984E-07
  0.919439832216E-07  0.980207813097E-07  0.104499209517E-06  0.111405812536E-06  0.118768889461E-06
  0.126618609738E-06  0.134987136787E-06  0.143908759780E-06  0.153420034146E-06  0.163559931345E-06
  0.174369998552E-06  0.185894528897E-06  0.198180742942E-06  0.211278982169E-06  0.225242915246E-06
  0.240129757930E-06  0.256000507498E-06  0.272920192683E-06  0.290958140115E-06  0.310188258382E-06
  0.330689340864E-06  0.352545388575E-06  0.375845954351E-06  0.400686509780E-06  0.427168836385E-06
  0.455401442664E-06  0.485500008687E-06  0.517587860084E-06  0.551796473353E-06  0.588266014569E-06
  0.627145913697E-06  0.668595476863E-06  0.712784539087E-06  0.759894160159E-06  0.810117366510E-06
  0.863659942106E-06  0.920741271623E-06  0.981595239340E-06  0.104647118745E-05  0.111563493769E-05
  0.118936988052E-05  0.126797813627E-05  0.135178179302E-05  0.144112422628E-05  0.153637150599E-05
  0.163791389632E-05  0.174616745481E-05  0.186157573702E-05  0.198461161393E-05  0.211577920946E-05
  0.225561596599E-05  0.240469484644E-05  0.256362668184E-05  0.273306267408E-05  0.291369706407E-05
  0.310626997621E-05  0.331157045090E-05  0.353043967736E-05  0.376377444027E-05  0.401253079400E-05
  0.427772797983E-05  0.456045260197E-05  0.486186307953E-05  0.518319439284E-05  0.552576314326E-05
  0.589097294755E-05  0.628032018862E-05  0.669540014636E-05  0.713791353366E-05  0.760967346430E-05
  0.811261288137E-05  0.864879247653E-05  0.922040913269E-05  0.982980492454E-05  0.104794767138E-04
  0.111720863788E-04  0.119104717197E-04  0.126976580843E-04  0.135368707628E-04  0.144315482007E-04
  0.153853560848E-04  0.164022023611E-04  0.174862532435E-04  0.186419502813E-04  0.198740285541E-04
  0.211875360685E-04  0.225878544372E-04  0.240807209236E-04  0.256722519431E-04  0.273689681173E-04
  0.291778209826E-04  0.311062214645E-04  0.331620702317E-04  0.353537900559E-04  0.376903603097E-04
  0.401813537418E-04  0.428369756827E-04  0.456681058394E-04  0.486863428498E-04  0.519040517810E-04
  0.553344147626E-04  0.589914849654E-04  0.628902441432E-04  0.670466639743E-04  0.714777714534E-04
  0.762017186003E-04  0.812378567703E-04  0.866068158699E-04  0.923305888017E-04  0.984326214811E-04
  0.104937908795E-03  0.111873096891E-03  0.119266592217E-03  0.127148677751E-03  0.135551636905E-03
  0.144509885590E-03  0.154060112999E-03  0.164241431670E-03  0.175095537441E-03  0.186666879949E-03
  0.199002844361E-03  0.212153945091E-03  0.226174032262E-03  0.241120511780E-03  0.257054579891E-03
  0.274041473182E-03  0.292150735031E-03  0.311456499598E-03  0.332037794482E-03  0.353978863289E-03
  0.377369509397E-03  0.402305462310E-03  0.428888768075E-03  0.457228205335E-03  0.487439728676E-03
  0.519646941060E-03  0.553981597237E-03  0.590584140130E-03  0.629604272357E-03  0.671201565153E-03
  0.715546107115E-03  0.762819195357E-03  0.813214071792E-03  0.866936707468E-03  0.924206638043E-03
  0.985257853685E-03  0.105033974688E-02  0.111971812186E-02  0.119367626957E-02  0.127251611241E-02
  0.135655942304E-02  0.144614912208E-02  0.154165065967E-02  0.164345348607E-02  0.175197261697E-02
  0.186765029941E-02  0.199095778458E-02  0.212239721406E-02  0.226250362662E-02  0.241184709284E-02
  0.257103498544E-02  0.274071439358E-02  0.292157468970E-02  0.311435025813E-02  0.331982339508E-02
  0.353882739007E-02  0.377224979945E-02  0.402103592316E-02  0.428619249623E-02  0.456879160747E-02
  0.486997485767E-02  0.519095777102E-02  0.553303447301E-02  0.589758264949E-02  0.628606880142E-02
  0.670005381063E-02  0.714119883211E-02  0.761127152916E-02  0.811215266729E-02  0.864584308392E-02
  0.921447105020E-02  0.982030004201E-02  0.104657369365E-01  0.111533406508E-01  0.118858312384E-01
  0.126660994586E-01  0.134972168332E-01  0.143824462030E-01  0.153252527955E-01  0.163293158124E-01
  0.173985405439E-01  0.185370710118E-01  0.197493031416E-01  0.210398984576E-01  0.224137982898E-01
  0.238762384750E-01  0.254327645267E-01  0.270892472385E-01  0.288518986772E-01  0.307272885065E-01
  0.327223605707E-01  0.348444496497E-01  0.371012982788E-01  0.395010735046E-01  0.420523834234E-01
  0.447642933221E-01  0.476463412075E-01  0.507085524748E-01  0.539614534269E-01  0.574160833068E-01
  0.610840044565E-01  0.649773101575E-01  0.691086296427E-01  0.734911296978E-01  0.781385121914E-01
  0.830650067838E-01  0.882853579683E-01  0.938148054920E-01  0.996690570871E-01  0.105864252318E+00
  0.112416916214E+00  0.119343901212E+00  0.126662315775E+00  0.134389437901E+00  0.142542611559E+00
  0.151139123901E+00  0.160196060976E+00  0.169730139418E+00  0.179757511509E+00  0.190293540787E+00
  0.201352545298E+00  0.212947505476E+00  0.225089733589E+00  0.237788501719E+00  0.251050625328E+00
  0.264879999673E+00  0.279277086679E+00  0.294238350339E+00  0.309755639456E+00  0.325815517429E+00
  0.342398540038E+00  0.359478483719E+00  0.377021528782E+00  0.394985404420E+00  0.413318505268E+00
  0.431958992765E+00  0.450833898677E+00  0.469858252927E+00  0.488934263381E+00  0.507950581420E+00
  0.526781694018E+00  0.545287490515E+00  0.563313060173E+00  0.580688784716E+00  0.597230798027E+00
  0.612741892440E+00  0.627012957051E+00  0.639825037234E+00  0.650952104962E+00  0.660164625263E+00
  0.667233993484E+00  0.671937899046E+00  0.674066641867E+00  0.673430385195E+00  0.669867270774E+00
  0.663252246778E+00  0.653506363855E+00  0.640606179004E+00  0.624592771227E+00  0.605579719654E+00
  0.583759229872E+00  0.559405427477E+00  0.532873684838E+00  0.504594729757E+00  0.475062232951E+00
  0.444812623267E+00  0.414396081764E+00  0.384338071410E+00  0.355091424646E+00  0.326979989743E+00
  0.300145029446E+00  0.274616731500E+00  0.250417314181E+00  0.227563810812E+00  0.206068289246E+00
  0.185937286569E+00  0.167169624729E+00  0.149753009570E+00  0.133661249029E+00  0.118854333944E+00
  0.105281761507E+00  0.928870240706E-01  0.816109832733E-01  0.713935214650E-01  0.621740868393E-01
  0.538918501163E-01  0.464858507232E-01  0.398952415870E-01  0.340596241186E-01  0.289194341912E-01
  0.244163421095E-01  0.204936393362E-01  0.170965935512E-01  0.141727620143E-01  0.116722578635E-01
  0.954796930309E-02  0.775573327231E-02  0.625446621801E-02  0.500625366289E-02  0.397639879800E-02
  0.313342926106E-02  0.244906124063E-02  0.189812105448E-02  0.145842619948E-02  0.111062992405E-02
  0.838035215808E-03  0.626385399616E-03  0.463639189355E-03  0.339738046748E-03  0.246373178551E-03
  0.176758590698E-03  0.125415462485E-03  0.879718392053E-04  0.609803782448E-04  0.417557062279E-04
  0.282319124024E-04
 ae wavefunction
  0.378898987490E-06  0.402376999679E-06  0.427153504093E-06  0.453309279905E-06  0.480929766771E-06
  0.510105358444E-06  0.540931722008E-06  0.573510132584E-06  0.607947828364E-06  0.644358392489E-06
  0.682862151663E-06  0.723586606825E-06  0.766666883081E-06  0.812246217054E-06  0.860476465230E-06
  0.911518650568E-06  0.965543544305E-06  0.102273227630E-05  0.108327699844E-05  0.114738157362E-05
  0.121526232113E-05  0.128714880341E-05  0.136328466616E-05  0.144392852870E-05  0.152935493458E-05
  0.161985536147E-05  0.171573929589E-05  0.181733537729E-05  0.192499261574E-05  0.203908168784E-05
  0.215999631629E-05  0.228815473822E-05  0.242400126864E-05  0.256800796485E-05  0.272067639802E-05
  0.288253954027E-05  0.305416377243E-05  0.323615102526E-05  0.342914105409E-05  0.363381386663E-05
  0.385089230506E-05  0.408114479577E-05  0.432538827830E-05  0.458449132804E-05  0.485937747455E-05
  0.515102874050E-05  0.546048941462E-05  0.578887005739E-05  0.613735178365E-05  0.650719081015E-05
  0.689972330535E-05  0.731637056301E-05  0.775864448236E-05  0.822815345750E-05  0.872660858904E-05
  0.925583035234E-05  0.981775566284E-05  0.104144454321E-04  0.110480925776E-04  0.117210306075E-04
  0.124357427040E-04  0.131948714552E-04  0.140012291512E-04  0.148578088503E-04  0.157677960504E-04
  0.167345812128E-04  0.177617730468E-04  0.188532126783E-04  0.200129887461E-04  0.212454534535E-04
  0.225552396932E-04  0.239472792579E-04  0.254268222679E-04  0.269994578122E-04  0.286711359816E-04
  0.304481912917E-04  0.323373676407E-04  0.343458448861E-04  0.364812671477E-04  0.387517729306E-04
  0.411660272170E-04  0.437332556121E-04  0.464632807271E-04  0.493665608901E-04  0.524542313796E-04
  0.557381482941E-04  0.592309353013E-04  0.629460333222E-04  0.668977535546E-04  0.711013337482E-04
  0.755729982078E-04  0.803300216500E-04  0.853907971847E-04  0.907749085412E-04  0.965032071340E-04
  0.102597893842E-03  0.109082606300E-03  0.115982511480E-03  0.123324404455E-03  0.131136813334E-03
  0.139450110968E-03  0.148296633683E-03  0.157710807737E-03  0.167729283708E-03  0.178391079445E-03
  0.189737732161E-03  0.201813460102E-03  0.214665334526E-03  0.228343462510E-03  0.242901181353E-03
  0.258395265216E-03  0.274886144820E-03  0.292438140928E-03  0.311119712531E-03  0.331003720579E-03
  0.352167708236E-03  0.374694198659E-03  0.398671011320E-03  0.424191598096E-03  0.451355400175E-03
  0.480268227143E-03  0.511042659532E-03  0.543798476200E-03  0.578663108079E-03  0.615772119811E-03
  0.655269720876E-03  0.697309308030E-03  0.742054040876E-03  0.789677452246E-03  0.840364095869E-03
  0.894310233083E-03  0.951724560861E-03  0.101282898373E-02  0.107785943188E-02  0.114706672801E-02
  0.122071750585E-02  0.129909518301E-02  0.138250099121E-02  0.147125506712E-02  0.156569760695E-02
  0.166619008832E-02  0.177311656297E-02  0.188688502400E-02  0.200792885162E-02  0.213670834142E-02
  0.227371231943E-02  0.241945984823E-02  0.257450202897E-02  0.273942390356E-02  0.291484646250E-02
  0.310142876279E-02  0.329987016170E-02  0.351091267136E-02  0.373534343993E-02  0.397399736493E-02
  0.422775984450E-02  0.449756967265E-02  0.478442208433E-02  0.508937195667E-02  0.541353717239E-02
  0.575810215172E-02  0.612432155911E-02  0.651352419096E-02  0.692711705059E-02  0.736658961662E-02
  0.783351831074E-02  0.832957117077E-02  0.885651273456E-02  0.941620914018E-02  0.100106334472E-01
  0.106418711838E-01  0.113121261236E-01  0.120237262954E-01  0.127791302295E-01  0.135809334409E-01
  0.144318751518E-01  0.153348452524E-01  0.162928914987E-01  0.173092269455E-01  0.183872376083E-01
  0.195304903506E-01  0.207427409861E-01  0.220279425879E-01  0.233902539906E-01  0.248340484710E-01
  0.263639225893E-01  0.279847051689E-01  0.297014663919E-01  0.315195269794E-01  0.334444674267E-01
  0.354821372547E-01  0.376386642361E-01  0.399204635505E-01  0.423342468141E-01  0.448870309275E-01
  0.475861466752E-01  0.504392470061E-01  0.534543149153E-01  0.566396708413E-01  0.600039794840E-01
  0.635562559389E-01  0.673058710374E-01  0.712625557693E-01  0.754364046577E-01  0.798378779449E-01
  0.844778024357E-01  0.893673708370E-01  0.945181394194E-01  0.999420238168E-01  0.105651292766E+00
  0.111658559582E+00  0.117976771150E+00  0.124619194201E+00  0.131599398641E+00  0.138931237680E+00
  0.146628824494E+00  0.154706505171E+00  0.163178827664E+00  0.172060506456E+00  0.181366382686E+00
  0.191111379429E+00  0.201310451862E+00  0.211978532038E+00  0.223130468002E+00  0.234780956979E+00
  0.246944472426E+00  0.259635184676E+00  0.272866875046E+00  0.286652843177E+00  0.301005807546E+00
  0.315937799011E+00  0.331460047414E+00  0.347582861215E+00  0.364315500297E+00  0.381666042068E+00
  0.399641241121E+00  0.418246382770E+00  0.437485130868E+00  0.457359370420E+00  0.477869045608E+00
  0.499011993918E+00  0.520783777239E+00  0.543177510876E+00  0.566183691603E+00  0.589790026077E+00
  0.613981261161E+00  0.638739018021E+00  0.664041632294E+00  0.689864003128E+00  0.716177454658E+00
  0.742949614249E+00  0.770144312828E+00  0.797721513651E+00  0.825637275776E+00  0.853843759223E+00
  0.882289275035E+00  0.910918379302E+00  0.939672000460E+00  0.968487576506E+00  0.997299164734E+00
  0.102603747728E+01  0.105462979948E+01  0.108299977149E+01  0.111106705799E+01  0.113874698529E+01
  0.116595027203E+01  0.119258299488E+01  0.121854689639E+01  0.124374005830E+01  0.126805786141E+01
  0.129139408565E+01  0.131364200454E+01  0.133469538781E+01  0.135444939643E+01  0.137280140075E+01
  0.138965176379E+01  0.140490462071E+01  0.141846866754E+01  0.143025795605E+01  0.144019268180E+01
  0.144819994825E+01  0.145421448905E+01  0.145817933327E+01  0.146004640023E+01  0.145977701462E+01
  0.145734233467E+01  0.145272368825E+01  0.144591281491E+01  0.143691201228E+01  0.142573418799E+01
  0.141240281923E+01  0.139695182366E+01  0.137942534692E+01  0.135987747247E+01  0.133837186115E+01
  0.131498132857E+01  0.128978736722E+01  0.126287962315E+01  0.123435533360E+01  0.120431873371E+01
  0.117288043793E+01  0.114015680134E+01  0.110626926396E+01  0.107134367921E+01  0.103550962574E+01
  0.998899701516E+00  0.961648792650E+00  0.923893314609E+00  0.885770417957E+00  0.847417154085E+00
  0.808969598477E+00  0.770561933676E+00  0.732325500363E+00  0.694387832984E+00  0.656871703953E+00
  0.619894207855E+00  0.583565919734E+00  0.547990161397E+00  0.513262402841E+00  0.479469815208E+00
  0.446690978610E+00  0.414995737113E+00  0.384445188733E+00  0.355091804844E+00  0.326979691663E+00
  0.300145029446E+00  0.274616731500E+00  0.250417314181E+00  0.227563810812E+00  0.206068289246E+00
  0.185937286569E+00  0.167169624729E+00  0.149753009570E+00  0.133661249029E+00  0.118854333944E+00
  0.105281761507E+00  0.928870240706E-01  0.816109832733E-01  0.713935214650E-01  0.621740868393E-01
  0.538918501163E-01  0.464858507232E-01  0.398952415870E-01  0.340596241186E-01  0.289194341912E-01
  0.244163421095E-01  0.204936393362E-01  0.170965935512E-01  0.141727620143E-01  0.116722578635E-01
  0.954796930309E-02  0.775573327231E-02  0.625446621801E-02  0.500625366289E-02  0.397639879800E-02
  0.313342926106E-02  0.244906124063E-02  0.189812105448E-02  0.145842619948E-02  0.111062992405E-02
  0.838035215808E-03  0.626385399616E-03  0.463639189355E-03  0.339738046748E-03  0.246373178551E-03
  0.176758590698E-03  0.125415462485E-03  0.879718392053E-04  0.609803782448E-04  0.417557062279E-04
  0.282319124024E-04
 pseudo wavefunction
 -0.916249710006E-10 -0.976806847935E-10 -0.104136635192E-09 -0.111019274789E-09 -0.118356804488E-09
 -0.126179289061E-09 -0.134518780329E-09 -0.143409448495E-09 -0.152887722150E-09 -0.162992437537E-09
 -0.173764997679E-09 -0.185249542020E-09 -0.197493127285E-09 -0.210545920287E-09 -0.224461403482E-09
 -0.239296594105E-09 -0.255112277794E-09 -0.271973257652E-09 -0.289948619768E-09 -0.309112016291E-09
 -0.329541967212E-09 -0.351322182088E-09 -0.374541903032E-09 -0.399296270376E-09 -0.425686712492E-09
 -0.453821361383E-09 -0.483815495743E-09 -0.515792013297E-09 -0.549881934355E-09 -0.586224938655E-09
 -0.624969937678E-09 -0.666275684799E-09 -0.710311425752E-09 -0.757257592095E-09 -0.807306540501E-09
 -0.860663340912E-09 -0.917546616786E-09 -0.978189440871E-09 -0.104284029019E-08 -0.111176406413E-08
 -0.118524316984E-08 -0.126357867934E-08 -0.134709156309E-08 -0.143612400516E-08 -0.153104080524E-08
 -0.163223087335E-08 -0.174010882333E-08 -0.185511667163E-08 -0.197772564839E-08 -0.210843812823E-08
 -0.224778968860E-08 -0.239635130422E-08 -0.255473168652E-08 -0.272357977764E-08 -0.290358740943E-08
 -0.309549213794E-08 -0.330008026544E-08 -0.351819006208E-08 -0.375071520045E-08 -0.399860841715E-08
 -0.426288541635E-08 -0.454462903133E-08 -0.484499366099E-08 -0.516520999967E-08 -0.550659007945E-08
 -0.587053264567E-08 -0.625852888783E-08 -0.667216854903E-08 -0.711314643932E-08 -0.758326937939E-08
 -0.808446360315E-08 -0.861878264954E-08 -0.918841577576E-08 -0.979569692659E-08 -0.104431142963E-07
 -0.111333205227E-07 -0.118691435540E-07 -0.126535982353E-07 -0.134898986589E-07 -0.143814713319E-07
 -0.153319692135E-07 -0.163452866801E-07 -0.174255754784E-07 -0.185772617337E-07 -0.198050640810E-07
 -0.211140129950E-07 -0.225094713962E-07 -0.239971566193E-07 -0.255831638323E-07 -0.272739910033E-07
 -0.290765655167E-07 -0.309982725469E-07 -0.330469853073E-07 -0.352310972974E-07 -0.375595566789E-07
 -0.400419029241E-07 -0.426883058833E-07 -0.455096074337E-07 -0.485173658780E-07 -0.517239032760E-07
 -0.551423559012E-07 -0.587867280295E-07 -0.626719492795E-07 -0.668139357388E-07 -0.712296551257E-07
 -0.759371962531E-07 -0.809558430772E-07 -0.863061536344E-07 -0.920100441877E-07 -0.980908789266E-07
 -0.104573565586E-06 -0.111484657374E-06 -0.118852461623E-06 -0.126707155612E-06 -0.135080910024E-06
 -0.144008020546E-06 -0.153525048147E-06 -0.163670968609E-06 -0.174487331904E-06 -0.186018432084E-06
 -0.198311488365E-06 -0.211416838136E-06 -0.225388142685E-06 -0.240282606470E-06 -0.256161210827E-06
 -0.273088963062E-06 -0.291135161930E-06 -0.310373680580E-06 -0.330883268102E-06 -0.352747870907E-06
 -0.376056975214E-06 -0.400905972045E-06 -0.427396546181E-06 -0.455637090648E-06 -0.485743148396E-06
 -0.517837882939E-06 -0.552052579837E-06 -0.588527181028E-06 -0.627410854136E-06 -0.668862599021E-06
 -0.713051893982E-06 -0.760159384172E-06 -0.810377614948E-06 -0.863911813051E-06 -0.920980718688E-06
 -0.981817471772E-06 -0.104667055581E-05 -0.111580480309E-05 -0.118950246509E-05 -0.126806435229E-05
 -0.135181104765E-05 -0.144108419864E-05 -0.153624789251E-05 -0.163769012024E-05 -0.174582433455E-05
 -0.186109110801E-05 -0.198395989723E-05 -0.211493091989E-05 -0.225453715144E-05 -0.240334644879E-05
 -0.256196380870E-05 -0.273103376905E-05 -0.291124296152E-05 -0.310332282464E-05 -0.330805248683E-05
 -0.352626182918E-05 -0.375883473857E-05 -0.400671256194E-05 -0.427089777315E-05 -0.455245786430E-05
 -0.485252947404E-05 -0.517232276551E-05 -0.551312606759E-05 -0.587631079297E-05 -0.626333664746E-05
 -0.667575714516E-05 -0.711522544433E-05 -0.758350051936E-05 -0.808245368408E-05 -0.861407548213E-05
 -0.918048295973E-05 -0.978392733626E-05 -0.104268020876E-04 -0.111116514566E-04 -0.118411794046E-04
 -0.126182590160E-04 -0.134459423675E-04 -0.143274708713E-04 -0.152662860984E-04 -0.162660410875E-04
 -0.173306121388E-04 -0.184641110899E-04 -0.196708980645E-04 -0.209555946799E-04 -0.223230976901E-04
 -0.237785930345E-04 -0.253275702519E-04 -0.269758372056E-04 -0.287295350542E-04 -0.305951533856E-04
 -0.325795454101E-04 -0.346899430919E-04 -0.369339720665E-04 -0.393196661672E-04 -0.418554813462E-04
 -0.445503087380E-04 -0.474134865659E-04 -0.504548105419E-04 -0.536845423482E-04 -0.571134157182E-04
 -0.607526395594E-04 -0.646138974633E-04 -0.687093428480E-04 -0.730515888550E-04 -0.776536919878E-04
 -0.825291283200E-04 -0.876917609220E-04 -0.931557969522E-04 -0.989357326200E-04 -0.105046283966E-03
 -0.111502301096E-03 -0.118318663158E-03 -0.125510150967E-03 -0.133091293698E-03 -0.141076185618E-03
 -0.149478268162E-03 -0.158310072070E-03 -0.167582913504E-03 -0.177306537212E-03 -0.187488698862E-03
 -0.198134677511E-03 -0.209246707988E-03 -0.220823321486E-03 -0.232858581091E-03 -0.245341197131E-03
 -0.258253505166E-03 -0.271570287107E-03 -0.285257413290E-03 -0.299270280372E-03 -0.313552016489E-03
 -0.328031421365E-03 -0.342620604681E-03 -0.357212281232E-03 -0.371676675874E-03 -0.385857985135E-03
 -0.399570335428E-03 -0.412593170027E-03 -0.424665988199E-03 -0.435482350122E-03 -0.444683050200E-03
 -0.451848349108E-03 -0.456489141170E-03 -0.458036918327E-03 -0.455832374904E-03 -0.449112478356E-03
 -0.436995810112E-03 -0.418465957266E-03 -0.392352710039E-03 -0.357310791457E-03 -0.311795814410E-03
 -0.254037126905E-03 -0.182007168891E-03 -0.933869232294E-04  0.144730007408E-04  0.144596160168E-03
  0.300429508254E-03  0.485898674620E-03  0.705469967828E-03  0.964219830974E-03  0.126791254278E-02
  0.162308701896E-02  0.203715363085E-02  0.251850201809E-02  0.307662092853E-02  0.372223116734E-02
  0.446743277622E-02  0.532586758765E-02  0.631289830337E-02  0.744580522369E-02  0.874400169749E-02
  0.102292692617E-01  0.119260132827E-01  0.138615396870E-01  0.160663530571E-01  0.185744759575E-01
  0.214237888141E-01  0.246563889862E-01  0.283189668040E-01  0.324631952768E-01  0.371461288622E-01
  0.424306051037E-01  0.483856410401E-01  0.550868140378E-01  0.626166140596E-01  0.710647513176E-01
  0.805283997567E-01  0.911123528471E-01  0.102929063753E+00  0.116098537102E+00  0.130748034410E+00
  0.147011549776E+00  0.165029007014E+00  0.184945124103E+00  0.206907886177E+00  0.231066564577E+00
  0.257569217598E+00  0.286559608996E+00  0.318173484345E+00  0.352534153900E+00  0.389747345278E+00
  0.429895311535E+00  0.473030211807E+00  0.519166824534E+00  0.568274708990E+00  0.620270001145E+00
  0.675007115597E+00  0.732270726717E+00  0.791768517902E+00  0.853125314610E+00  0.915879348700E+00
  0.979481528684E+00  0.104329869876E+01  0.110662193909E+01  0.116868096539E+01  0.122866559506E+01
  0.128577488578E+01  0.133938938716E+01  0.138896716985E+01  0.143395564181E+01  0.147380159567E+01
  0.150795677037E+01  0.153586875058E+01  0.000000000000E+00  0.000000000000E+00  0.000000000000E+00
  0.000000000000E+00  0.000000000000E+00  0.000000000000E+00  0.000000000000E+00  0.000000000000E+00
  0.000000000000E+00  0.000000000000E+00  0.000000000000E+00  0.000000000000E+00  0.000000000000E+00
  0.000000000000E+00  0.000000000000E+00  0.000000000000E+00  0.000000000000E+00  0.000000000000E+00
  0.000000000000E+00  0.000000000000E+00  0.000000000000E+00  0.000000000000E+00  0.000000000000E+00
  0.000000000000E+00  0.000000000000E+00  0.000000000000E+00  0.000000000000E+00  0.000000000000E+00
  0.000000000000E+00  0.000000000000E+00  0.000000000000E+00  0.000000000000E+00  0.000000000000E+00
  0.000000000000E+00  0.000000000000E+00  0.000000000000E+00  0.000000000000E+00  0.000000000000E+00
  0.000000000000E+00
 ae wavefunction
 -0.222058262825E-06 -0.235817870207E-06 -0.250338475808E-06 -0.265667421428E-06 -0.281854780207E-06
 -0.298953528711E-06 -0.317019734014E-06 -0.336112749865E-06 -0.356295424760E-06 -0.377634325745E-06
 -0.400199972031E-06 -0.424067087399E-06 -0.449314863885E-06 -0.476027247407E-06 -0.504293235680E-06
 -0.534207198571E-06 -0.565869219077E-06 -0.599385451020E-06 -0.634868507852E-06 -0.672437866453E-06
 -0.712220303944E-06 -0.754350358817E-06 -0.798970823274E-06 -0.846233265045E-06 -0.896298584492E-06
 -0.949337606500E-06 -0.100553171031E-05 -0.106507350005E-05 -0.112816751836E-05 -0.119503100591E-05
 -0.126589470990E-05 -0.134100374460E-05 -0.142061850762E-05 -0.150501565540E-05 -0.159448914147E-05
 -0.168935132237E-05 -0.178993413436E-05 -0.189659034831E-05 -0.200969490277E-05 -0.212964632688E-05
 -0.225686825360E-05 -0.239181103124E-05 -0.253495344004E-05 -0.268680452228E-05 -0.284790552701E-05
 -0.301883198410E-05 -0.320019591550E-05 -0.339264818277E-05 -0.359688099698E-05 -0.381363058394E-05
 -0.404368002644E-05 -0.428786229633E-05 -0.454706346629E-05 -0.482222616135E-05 -0.511435319943E-05
 -0.542451149922E-05 -0.575383622106E-05 -0.610353519524E-05 -0.647489361617E-05 -0.686927907380E-05
 -0.728814687696E-05 -0.773304575691E-05 -0.820562390130E-05 -0.870763544017E-05 -0.924094728571E-05
 -0.980754647221E-05 -0.104095479418E-04 -0.110492028479E-04 -0.117289074028E-04 -0.124512122851E-04
 -0.132188326757E-04 -0.140346589307E-04 -0.149017679668E-04 -0.158234353589E-04 -0.168031482524E-04
 -0.178446190908E-04 -0.189518002426E-04 -0.201288995769E-04 -0.213803970508E-04 -0.227110623632E-04
 -0.241259737628E-04 -0.256305380599E-04 -0.272305119488E-04 -0.289320246949E-04 -0.307416023001E-04
 -0.326661932134E-04 -0.347131957283E-04 -0.368904871011E-04 -0.392064546258E-04 -0.416700286145E-04
 -0.442907175635E-04 -0.470786455763E-04 -0.500445922054E-04 -0.532000347809E-04 -0.565571935755E-04
 -0.601290797321E-04 -0.639295464200E-04 -0.679733430967E-04 -0.722761733846E-04 -0.768547565703E-04
 -0.817268930720E-04 -0.869115340212E-04 -0.924288553743E-04 -0.983003366705E-04 -0.104548844810E-03
 -0.111198723184E-03 -0.118275886427E-03 -0.125807921198E-03 -0.133824193318E-03 -0.142355961699E-03
 -0.151436499443E-03 -0.161101222592E-03 -0.171387826965E-03 -0.182336433596E-03 -0.193989743297E-03
 -0.206393200894E-03 -0.219595169737E-03 -0.233647117074E-03 -0.248603811008E-03 -0.264523529657E-03
 -0.281468283304E-03 -0.299504050303E-03 -0.318701027526E-03 -0.339133896271E-03 -0.360882104504E-03
 -0.384030166383E-03 -0.408667980131E-03 -0.434891165319E-03 -0.462801420547E-03 -0.492506902972E-03
 -0.524122630707E-03 -0.557770909436E-03 -0.593581784732E-03 -0.631693521448E-03 -0.672253111651E-03
 -0.715416812829E-03 -0.761350717935E-03 -0.810231359033E-03 -0.862246346451E-03 -0.917595045280E-03
 -0.976489291278E-03 -0.103915414826E-02 -0.110582870914E-02 -0.117676694297E-02 -0.125223859030E-02
 -0.133253010929E-02 -0.141794567529E-02 -0.150880823639E-02 -0.160546062780E-02 -0.170826674789E-02
 -0.181761279883E-02 -0.193390859495E-02 -0.205758894182E-02 -0.218911508942E-02 -0.232897626264E-02
 -0.247769127247E-02 -0.263581021138E-02 -0.280391623641E-02 -0.298262744345E-02 -0.317259883644E-02
 -0.337452439502E-02 -0.358913924432E-02 -0.381722193049E-02 -0.405959680563E-02 -0.431713652557E-02
 -0.459076466409E-02 -0.488145844686E-02 -0.519025160836E-02 -0.551823737482E-02 -0.586657157598E-02
 -0.623647588827E-02 -0.662924121169E-02 -0.704623118209E-02 -0.748888582051E-02 -0.795872532044E-02
 -0.845735397323E-02 -0.898646423160E-02 -0.954784091002E-02 -0.101433655202E-01 -0.107750207389E-01
 -0.114448950040E-01 -0.121551872340E-01 -0.129082116646E-01 -0.137064027946E-01 -0.145523204311E-01
 -0.154486548244E-01 -0.163982318776E-01 -0.174040184173E-01 -0.184691275071E-01 -0.195968237843E-01
 -0.207905287969E-01 -0.220538263157E-01 -0.233904675924E-01 -0.248043765310E-01 -0.262996547384E-01
 -0.278805864122E-01 -0.295516430233E-01 -0.313174877444E-01 -0.331829795710E-01 -0.351531770768E-01
 -0.372333417406E-01 -0.394289407738E-01 -0.417456493766E-01 -0.441893523378E-01 -0.467661448945E-01
 -0.494823327550E-01 -0.523444311857E-01 -0.553591630519E-01 -0.585334557006E-01 -0.618744365598E-01
 -0.653894273266E-01 -0.690859366069E-01 -0.729716508617E-01 -0.770544235105E-01 -0.813422620324E-01
 -0.858433129018E-01 -0.905658441868E-01 -0.955182256392E-01 -0.100708906090E+00 -0.106146387974E+00
 -0.111839198791E+00 -0.117795859326E+00 -0.124024848435E+00 -0.130534564217E+00 -0.137333281392E+00
 -0.144429104728E+00 -0.151829918321E+00 -0.159543330630E+00 -0.167576615084E+00 -0.175936646196E+00
 -0.184629831048E+00 -0.193662036129E+00 -0.203038509463E+00 -0.212763798047E+00 -0.222841660637E+00
 -0.233274975974E+00 -0.244065646573E+00 -0.255214498267E+00 -0.266721175742E+00 -0.278584034350E+00
 -0.290800028568E+00 -0.303364597520E+00 -0.316271548067E+00 -0.329512936066E+00 -0.343078946486E+00
 -0.356957773249E+00 -0.371135499828E+00 -0.385595981862E+00 -0.400320733418E+00 -0.415288818887E+00
 -0.430476753015E+00 -0.445858412127E+00 -0.461404960165E+00 -0.477084793163E+00 -0.492863506126E+00
 -0.508703884130E+00 -0.524565917038E+00 -0.540406831627E+00 -0.556181127661E+00 -0.571840596563E+00
 -0.587334296184E+00 -0.602608457657E+00 -0.617606314257E+00 -0.632267867621E+00 -0.646529638196E+00
 -0.660324472733E+00 -0.673581489786E+00 -0.686226223333E+00 -0.698180976322E+00 -0.709365337801E+00
 -0.719696779699E+00 -0.729091250950E+00 -0.737463721385E+00 -0.744728667687E+00 -0.750800520151E+00
 -0.755594094556E+00 -0.759025027084E+00 -0.761010219893E+00 -0.761468295841E+00 -0.760320055580E+00
 -0.757488927961E+00 -0.752901404776E+00 -0.746487452298E+00 -0.738180893659E+00 -0.727919758407E+00
 -0.715646597004E+00 -0.701308759581E+00 -0.684858639973E+00 -0.666253886783E+00 -0.645457584840E+00
 -0.622438411164E+00 -0.597170770613E+00 -0.569634917382E+00 -0.539817068893E+00 -0.507709519404E+00
 -0.473310760982E+00 -0.436625618861E+00 -0.397665408978E+00 -0.356448123814E+00 -0.312998652571E+00
 -0.267349040215E+00 -0.219538788921E+00 -0.169615203991E+00 -0.117633785239E+00 -0.636586639934E-01
 -0.776308601724E-02  0.499700593715E-01  0.109447660490E+00  0.170565748610E+00  0.233208795607E+00
  0.297248925911E+00  0.362545017989E+00  0.428941665118E+00  0.496267962913E+00  0.564336095008E+00
  0.632939697458E+00  0.701852005850E+00  0.770823810929E+00  0.839581284061E+00  0.907823762305E+00
  0.975221609874E+00  0.104141429498E+01  0.110600884840E+01  0.116857892535E+01  0.122866480799E+01
  0.128577488578E+01  0.133938938716E+01  0.138896716985E+01  0.143395564181E+01  0.147380159567E+01
  0.150795677037E+01  0.153586875058E+01  0.000000000000E+00  0.000000000000E+00  0.000000000000E+00
  0.000000000000E+00  0.000000000000E+00  0.000000000000E+00  0.000000000000E+00  0.000000000000E+00
  0.000000000000E+00  0.000000000000E+00  0.000000000000E+00  0.000000000000E+00  0.000000000000E+00
  0.000000000000E+00  0.000000000000E+00  0.000000000000E+00  0.000000000000E+00  0.000000000000E+00
  0.000000000000E+00  0.000000000000E+00  0.000000000000E+00  0.000000000000E+00  0.000000000000E+00
  0.000000000000E+00  0.000000000000E+00  0.000000000000E+00  0.000000000000E+00  0.000000000000E+00
  0.000000000000E+00  0.000000000000E+00  0.000000000000E+00  0.000000000000E+00  0.000000000000E+00
  0.000000000000E+00  0.000000000000E+00  0.000000000000E+00  0.000000000000E+00  0.000000000000E+00
  0.000000000000E+00
 pseudo wavefunction
  0.370187928525E-05  0.382225516648E-05  0.394654537127E-05  0.407487718367E-05  0.420738202669E-05
  0.434419559691E-05  0.448545800341E-05  0.463131391128E-05  0.478191268976E-05  0.493740856520E-05
  0.509796077901E-05  0.526373375075E-05  0.543489724649E-05  0.561162655267E-05  0.579410265562E-05
  0.598251242689E-05  0.617704881466E-05  0.637791104126E-05  0.658530480730E-05  0.679944250222E-05
  0.702054342187E-05  0.724883399306E-05  0.748454800544E-05  0.772792685094E-05  0.797921977095E-05
  0.823868411160E-05  0.850658558727E-05  0.878319855276E-05  0.906880628419E-05  0.936370126915E-05
  0.966818550622E-05  0.998257081425E-05  0.103071791517E-04  0.106423429463E-04  0.109884054355E-04
  0.113457210183E-04  0.117146556175E-04  0.120955870551E-04  0.124889054390E-04  0.128950135623E-04
  0.133143273162E-04  0.137472761155E-04  0.141943033388E-04  0.146558667822E-04  0.151324391284E-04
  0.156245084305E-04  0.161325786120E-04  0.166571699831E-04  0.171988197730E-04  0.177580826806E-04
  0.183355314424E-04  0.189317574189E-04  0.195473712005E-04  0.201830032327E-04  0.208393044616E-04
  0.215169470008E-04  0.222166248198E-04  0.229390544543E-04  0.236849757405E-04  0.244551525726E-04
  0.252503736850E-04  0.260714534605E-04  0.269192327640E-04  0.277945798037E-04  0.286983910205E-04
  0.296315920060E-04  0.305951384506E-04  0.315900171219E-04  0.326172468761E-04  0.336778797005E-04
  0.347730017921E-04  0.359037346692E-04  0.370712363206E-04  0.382767023913E-04  0.395213674075E-04
  0.408065060409E-04  0.421334344144E-04  0.435035114499E-04  0.449181402607E-04  0.463787695884E-04
  0.478868952870E-04  0.494440618552E-04  0.510518640183E-04  0.527119483623E-04  0.544260150201E-04
  0.561958194134E-04  0.580231740514E-04  0.599099503868E-04  0.618580807339E-04  0.638695602479E-04
  0.659464489691E-04  0.680908739336E-04  0.703050313526E-04  0.725911888628E-04  0.749516878501E-04
  0.773889458486E-04  0.799054590184E-04  0.825038047033E-04  0.851866440722E-04  0.879567248471E-04
  0.908168841186E-04  0.937700512546E-04  0.968192509028E-04  0.999676060916E-04  0.103218341432E-03
  0.106574786422E-03  0.110040378865E-03  0.113618668390E-03  0.117313320093E-03  0.121128118301E-03
  0.125066970447E-03  0.129133911081E-03  0.133333106012E-03  0.137668856578E-03  0.142145604063E-03
  0.146767934255E-03  0.151540582152E-03  0.156468436827E-03  0.161556546441E-03  0.166810123437E-03
  0.172234549887E-03  0.177835383025E-03  0.183618360958E-03  0.189589408561E-03  0.195754643574E-03
  0.202120382888E-03  0.208693149047E-03  0.215479676957E-03  0.222486920820E-03  0.229722061296E-03
  0.237192512895E-03  0.244905931619E-03  0.252870222858E-03  0.261093549536E-03  0.269584340538E-03
  0.278351299409E-03  0.287403413344E-03  0.296749962475E-03  0.306400529466E-03  0.316365009429E-03
  0.326653620167E-03  0.337276912763E-03  0.348245782520E-03  0.359571480264E-03  0.371265624033E-03
  0.383340211156E-03  0.395807630735E-03  0.408680676549E-03  0.421972560402E-03  0.435696925912E-03
  0.449867862780E-03  0.464499921531E-03  0.479608128779E-03  0.495208002993E-03  0.511315570824E-03
  0.527947383985E-03  0.545120536720E-03  0.562852683881E-03  0.581162059633E-03  0.600067496820E-03
  0.619588447011E-03  0.639745001260E-03  0.660557911596E-03  0.682048613293E-03  0.704239247939E-03
  0.727152687335E-03  0.750812558273E-03  0.775243268220E-03  0.800470031952E-03  0.826518899176E-03
  0.853416783200E-03  0.881191490670E-03  0.909871752460E-03  0.939487255737E-03  0.970068677277E-03
  0.100164771809E-02  0.103425713943E-02  0.106793080018E-02  0.110270369588E-02  0.113861199920E-02
  0.117569310223E-02  0.121398566042E-02  0.125352963849E-02  0.129436635823E-02  0.133653854845E-02
  0.138009039709E-02  0.142506760573E-02  0.147151744645E-02  0.151948882149E-02  0.156903232556E-02
  0.162020031122E-02  0.167304695731E-02  0.172762834089E-02  0.178400251264E-02  0.184222957618E-02
  0.190237177145E-02  0.196449356247E-02  0.202866172983E-02  0.209494546816E-02  0.216341648908E-02
  0.223414912982E-02  0.230722046822E-02  0.238271044430E-02  0.246070198917E-02  0.254128116164E-02
  0.262453729324E-02  0.271056314234E-02  0.279945505805E-02  0.289131315468E-02  0.298624149768E-02
  0.308434830206E-02  0.318574614412E-02  0.329055218793E-02  0.339888842752E-02  0.351088194632E-02
  0.362666519527E-02  0.374637629125E-02  0.387015933755E-02  0.399816476842E-02  0.413054971981E-02
  0.426747842849E-02  0.440912266243E-02  0.455566218484E-02  0.470728525528E-02  0.486418917098E-02
  0.502658085213E-02  0.519467747515E-02  0.536870715837E-02  0.554890970486E-02  0.573553740781E-02
  0.592885592415E-02  0.612914522274E-02  0.633670061407E-02  0.655183386911E-02  0.677487443539E-02
  0.700617075960E-02  0.724609172649E-02  0.749502822479E-02  0.775339485220E-02  0.802163177217E-02
  0.830020673656E-02  0.858961728970E-02  0.889039317038E-02  0.920309893027E-02  0.952833678842E-02
  0.986674974375E-02  0.102190249689E-01  0.105858975109E-01  0.109681543270E-01  0.113666386853E-01
  0.117822549625E-01  0.122159738754E-01  0.126688381833E-01  0.131419689025E-01  0.136365720779E-01
  0.141539461600E-01  0.146954900369E-01  0.152627117788E-01  0.158572381513E-01  0.164808249630E-01
  0.171353683119E-01  0.178229168026E-01  0.185456848084E-01  0.193060668582E-01  0.201066532278E-01
  0.209502468245E-01  0.218398814497E-01  0.227788415332E-01  0.237706834290E-01  0.248192583659E-01
  0.259287371434E-01  0.271036366610E-01  0.283488483649E-01  0.296696686873E-01  0.310718315427E-01
  0.325615429330E-01  0.341455176906E-01  0.358310183680E-01  0.376258962474E-01  0.395386344080E-01
  0.415783927397E-01  0.437550547336E-01  0.460792758102E-01  0.485625328612E-01  0.512171745827E-01
  0.540564720559E-01  0.570946688966E-01  0.603470301294E-01  0.638298887566E-01  0.675606887735E-01
  0.715580231357E-01  0.758416648981E-01  0.804325894300E-01  0.853529852495E-01  0.906262506242E-01
  0.962769726464E-01  0.102330885013E+00  0.108814800228E+00  0.115756511400E+00  0.123184658246E+00
  0.131128551325E+00  0.139617948001E+00  0.148682773046E+00  0.158352776418E+00  0.168657120332E+00
  0.179623887636E+00  0.191279503526E+00  0.203648063075E+00  0.216750557820E+00  0.230603996091E+00
  0.245220413788E+00  0.260605775282E+00  0.276758768069E+00  0.293669500081E+00  0.311318115219E+00
  0.329673351083E+00  0.348691073132E+00  0.368312831853E+00  0.388464503976E+00  0.409055095465E+00
  0.429975802645E+00  0.451099448162E+00  0.472280429713E+00  0.493355340711E+00  0.514144441511E+00
  0.534454175578E+00  0.554080933917E+00  0.572816269607E+00  0.590460119653E+00  0.606934393504E+00
  0.622215087041E+00  0.636298272392E+00  0.649182235189E+00  0.660849303316E+00  0.671252529611E+00
  0.680315963075E+00  0.687946507002E+00  0.694047921891E+00  0.698530305941E+00  0.701314436614E+00
  0.702333142489E+00  0.701531671402E+00  0.698868111807E+00  0.694314203830E+00  0.687856635321E+00
  0.679498596565E+00  0.669261531412E+00  0.657186708473E+00  0.643336451188E+00  0.627794661850E+00
  0.610666423081E+00  0.592076615451E+00  0.572167476246E+00  0.551095338928E+00  0.529026837797E+00
  0.506134859826E+00  0.482594572622E+00  0.458579826885E+00  0.434260026867E+00  0.409797635451E+00
  0.385346319698E+00  0.361049720813E+00  0.337040786222E+00  0.313441569960E+00  0.290363384530E+00
  0.267907172749E+00  0.246163963477E+00  0.225215283304E+00  0.205133419595E+00  0.185981468564E+00
  0.167813151295E+00
 ae wavefunction
  0.271582005413E-03  0.280377567139E-03  0.289457770169E-03  0.298831812102E-03  0.308509186839E-03
  0.318499694084E-03  0.328813449127E-03  0.339460892930E-03  0.350452802551E-03  0.361800301866E-03
  0.373514872662E-03  0.385608366046E-03  0.398093014245E-03  0.410981442740E-03  0.424286682813E-03
  0.438022184470E-03  0.452201829760E-03  0.466839946538E-03  0.481951322621E-03  0.497551220417E-03
  0.513655391990E-03  0.530280094600E-03  0.547442106717E-03  0.565158744547E-03  0.583447879053E-03
  0.602327953508E-03  0.621818001589E-03  0.641937666028E-03  0.662707217838E-03  0.684147576117E-03
  0.706280328474E-03  0.729127752070E-03  0.752712835294E-03  0.777059300115E-03  0.802191625093E-03
  0.828135069098E-03  0.854915695744E-03  0.882560398552E-03  0.911096926877E-03  0.940553912604E-03
  0.970960897648E-03  0.100234836226E-02  0.103474775421E-02  0.106819151876E-02  0.110271312960E-02
  0.113834712065E-02  0.117512911881E-02  0.121309587763E-02  0.125228531204E-02  0.129273653396E-02
  0.133448988906E-02  0.137758699450E-02  0.142207077777E-02  0.146798551664E-02  0.151537688020E-02
  0.156429197115E-02  0.161477936912E-02  0.166688917536E-02  0.172067305856E-02  0.177618430191E-02
  0.183347785159E-02  0.189261036634E-02  0.195364026867E-02  0.201662779705E-02  0.208163505990E-02
  0.214872609065E-02  0.221796690445E-02  0.228942555624E-02  0.236317220032E-02  0.243927915148E-02
  0.251782094757E-02  0.259887441367E-02  0.268251872782E-02  0.276883548835E-02  0.285790878272E-02
  0.294982525814E-02  0.304467419364E-02  0.314254757389E-02  0.324354016461E-02  0.334774958968E-02
  0.345527640981E-02  0.356622420299E-02  0.368069964647E-02  0.379881260045E-02  0.392067619334E-02
  0.404640690870E-02  0.417612467371E-02  0.430995294923E-02  0.444801882136E-02  0.459045309447E-02
  0.473739038588E-02  0.488896922154E-02  0.504533213341E-02  0.520662575792E-02  0.537300093556E-02
  0.554461281184E-02  0.572162093878E-02  0.590418937785E-02  0.609248680310E-02  0.628668660537E-02
  0.648696699667E-02  0.669351111508E-02  0.690650712958E-02  0.712614834492E-02  0.735263330627E-02
  0.758616590306E-02  0.782695547237E-02  0.807521690098E-02  0.833117072616E-02  0.859504323473E-02
  0.886706656000E-02  0.914747877630E-02  0.943652399056E-02  0.973445243058E-02  0.100415205294E-01
  0.103579910056E-01  0.106841329378E-01  0.110202218352E-01  0.113665397000E-01  0.117233750843E-01
  0.120910231390E-01  0.124697856538E-01  0.128599710883E-01  0.132618945927E-01  0.136758780174E-01
  0.141022499096E-01  0.145413454978E-01  0.149935066598E-01  0.154590818767E-01  0.159384261681E-01
  0.164319010095E-01  0.169398742287E-01  0.174627198809E-01  0.180008180997E-01  0.185545549228E-01
  0.191243220900E-01  0.197105168120E-01  0.203135415071E-01  0.209338035042E-01  0.215717147088E-01
  0.222276912306E-01  0.229021529687E-01  0.235955231521E-01  0.243082278334E-01  0.250406953300E-01
  0.257933556128E-01  0.265666396361E-01  0.273609786058E-01  0.281768031839E-01  0.290145426217E-01
  0.298746238211E-01  0.307574703168E-01  0.316635011769E-01  0.325931298159E-01  0.335467627151E-01
  0.345247980464E-01  0.355276241925E-01  0.365556181597E-01  0.376091438762E-01  0.386885503713E-01
  0.397941698277E-01  0.409263155031E-01  0.420852795129E-01  0.432713304677E-01  0.444847109606E-01
  0.457256348957E-01  0.469942846524E-01  0.482908080786E-01  0.496153153047E-01  0.509678753746E-01
  0.523485126834E-01  0.537572032193E-01  0.551938705992E-01  0.566583818956E-01  0.581505432466E-01
  0.596700952448E-01  0.612167081000E-01  0.627899765696E-01  0.643894146575E-01  0.660144500710E-01
  0.676644184424E-01  0.693385573055E-01  0.710359998342E-01  0.727557683386E-01  0.744967675257E-01
  0.762577775252E-01  0.780374466889E-01  0.798342841707E-01  0.816466522966E-01  0.834727587379E-01
  0.853106485028E-01  0.871581957632E-01  0.890130955387E-01  0.908728552613E-01  0.927347862493E-01
  0.945959951215E-01  0.964533751891E-01  0.983035978634E-01  0.100143104127E+00  0.101968096119E+00
  0.103774528884E+00  0.105558102358E+00  0.107314253646E+00  0.109038149675E+00  0.110724680296E+00
  0.112368451924E+00  0.113963781815E+00  0.115504693072E+00  0.116984910498E+00  0.118397857408E+00
  0.119736653523E+00  0.120994114080E+00  0.122162750300E+00  0.123234771356E+00  0.124202087996E+00
  0.125056317992E+00  0.125788793563E+00  0.126390570973E+00  0.126852442462E+00  0.127164950706E+00
  0.127318405991E+00  0.127302906295E+00  0.127108360468E+00  0.126724514702E+00  0.126140982483E+00
  0.125347278214E+00  0.124332854678E+00  0.123087144520E+00  0.121599605908E+00  0.119859772501E+00
  0.117857307863E+00  0.115582064418E+00  0.113024147001E+00  0.110173981078E+00  0.107022385606E+00
  0.103560650512E+00  0.997806186976E-01  0.956747724404E-01  0.912363239855E-01  0.864593100882E-01
  0.813386901775E-01  0.758704477642E-01  0.700516946338E-01  0.638807772989E-01  0.573573851105E-01
  0.504826593476E-01  0.432593025244E-01  0.356916870565E-01  0.277859623234E-01  0.195501590264E-01
  0.109942895768E-01  0.213044303964E-02 -0.702712708952E-02 -0.164619242805E-01 -0.261551417686E-01
 -0.360856091058E-01 -0.462297545606E-01 -0.565615846472E-01 -0.670526804375E-01 -0.776722079106E-01
 -0.883869369212E-01 -0.991612616207E-01 -0.109957215885E+00 -0.120734481677E+00 -0.131450396164E+00
 -0.142059972637E+00 -0.152515957175E+00 -0.162768943087E+00 -0.172767556232E+00 -0.182458708931E+00
 -0.191787906136E+00 -0.200699582080E+00 -0.209137450413E+00 -0.217044859889E+00 -0.224365155473E+00
 -0.231042047694E+00 -0.237019992445E+00 -0.242244581002E+00 -0.246662937419E+00 -0.250224118609E+00
 -0.252879511430E+00 -0.254583220836E+00 -0.255292443464E+00 -0.254967821514E+00 -0.253573772590E+00
 -0.251078791800E+00 -0.247455723160E+00 -0.242681998139E+00 -0.236739839768E+00 -0.229616431477E+00
 -0.221304050467E+00 -0.211800165973E+00 -0.201107503405E+00 -0.189234075681E+00 -0.176193183521E+00
 -0.162003386686E+00 -0.146688448027E+00 -0.130277252489E+00 -0.112803702636E+00 -0.943065921508E-01
 -0.748294581936E-01 -0.544204130582E-01 -0.331319550115E-01 -0.110207577998E-01  0.118525619036E-01
  0.354236996724E-01  0.596249412882E-01  0.843854622597E-01  0.109631646062E+00  0.135287415734E+00
  0.161274570639E+00  0.187513117349E+00  0.213921581395E+00  0.240417285913E+00  0.266916585153E+00
  0.293335044550E+00  0.319587568781E+00  0.345588486731E+00  0.371251615305E+00  0.396490332432E+00
  0.421217696721E+00  0.445346655673E+00  0.468790390747E+00  0.491462865558E+00  0.513279686598E+00
  0.534159463464E+00  0.554025948719E+00  0.572811250668E+00  0.590460119653E+00  0.606934393504E+00
  0.622215087041E+00  0.636298272392E+00  0.649182235189E+00  0.660849303316E+00  0.671252529611E+00
  0.680315963075E+00  0.687946507002E+00  0.694047921891E+00  0.698530305941E+00  0.701314436614E+00
  0.702333142489E+00  0.701531671402E+00  0.698868111807E+00  0.694314203830E+00  0.687856635321E+00
  0.679498596565E+00  0.669261531412E+00  0.657186708473E+00  0.643336451188E+00  0.627794661850E+00
  0.610666423081E+00  0.592076615451E+00  0.572167476246E+00  0.551095338928E+00  0.529026837797E+00
  0.506134859826E+00  0.482594572622E+00  0.458579826885E+00  0.434260026867E+00  0.409797635451E+00
  0.385346319698E+00  0.361049720813E+00  0.337040786222E+00  0.313441569960E+00  0.290363384530E+00
  0.267907172749E+00  0.246163963477E+00  0.225215283304E+00  0.205133419595E+00  0.185981468564E+00
  0.167813151295E+00
 pseudo wavefunction
  0.357513896009E-04  0.369139356131E-04  0.381142847227E-04  0.393536661920E-04  0.406333492561E-04
  0.419546444227E-04  0.433189048134E-04  0.447275275505E-04  0.461819551870E-04  0.476836771840E-04
  0.492342314365E-04  0.508352058478E-04  0.524882399560E-04  0.541950266128E-04  0.559573137174E-04
  0.577769060062E-04  0.596556669012E-04  0.615955204184E-04  0.635984531379E-04  0.656665162386E-04
  0.678018275984E-04  0.700065739638E-04  0.722830131885E-04  0.746334765463E-04  0.770603711182E-04
  0.795661822575E-04  0.821534761352E-04  0.848249023677E-04  0.875831967307E-04  0.904311839605E-04
  0.933717806467E-04  0.964079982196E-04  0.995429460338E-04  0.102779834552E-03  0.106121978635E-03
  0.109572800932E-03  0.113135835392E-03  0.116814730876E-03  0.120613254899E-03  0.124535297487E-03
  0.128584875160E-03  0.132766135043E-03  0.137083359120E-03  0.141540968611E-03  0.146143528507E-03
  0.150895752239E-03  0.155802506509E-03  0.160868816272E-03  0.166099869883E-03  0.171501024412E-03
  0.177077811125E-03  0.182835941154E-03  0.188781311345E-03  0.194920010295E-03  0.201258324587E-03
  0.207802745231E-03  0.214559974310E-03  0.221536931845E-03  0.228740762878E-03  0.236178844795E-03
  0.243858794877E-03  0.251788478103E-03  0.259976015205E-03  0.268429790984E-03  0.277158462898E-03
  0.286170969927E-03  0.295476541729E-03  0.305084708093E-03  0.315005308698E-03  0.325248503189E-03
  0.335824781587E-03  0.346744975028E-03  0.358020266856E-03  0.369662204080E-03  0.381682709198E-03
  0.394094092408E-03  0.406909064216E-03  0.420140748457E-03  0.433802695731E-03  0.447908897288E-03
  0.462473799353E-03  0.477512317928E-03  0.493039854064E-03  0.509072309639E-03  0.525626103646E-03
  0.542718189010E-03  0.560366069953E-03  0.578587819924E-03  0.597402100110E-03  0.616828178556E-03
  0.636885949900E-03  0.657595955751E-03  0.678979405736E-03  0.701058199222E-03  0.723854947757E-03
  0.747392998230E-03  0.771696456792E-03  0.796790213552E-03  0.822699968081E-03  0.849452255737E-03
  0.877074474860E-03  0.905594914845E-03  0.935042785123E-03  0.965448245102E-03  0.996842435064E-03
  0.102925750809E-02  0.106272666299E-02  0.109728417836E-02  0.113296544769E-02  0.116980701565E-02
  0.120784661557E-02  0.124712320809E-02  0.128767702112E-02  0.132954959110E-02  0.137278380555E-02
  0.141742394709E-02  0.146351573885E-02  0.151110639132E-02  0.156024465084E-02  0.161098084956E-02
  0.166336695710E-02  0.171745663387E-02  0.177330528614E-02  0.183097012292E-02  0.189051021464E-02
  0.195198655387E-02  0.201546211787E-02  0.208100193333E-02  0.214867314316E-02  0.221854507543E-02
  0.229068931468E-02  0.236517977545E-02  0.244209277829E-02  0.252150712828E-02  0.260350419604E-02
  0.268816800151E-02  0.277558530041E-02  0.286584567358E-02  0.295904161925E-02  0.305526864833E-02
  0.315462538293E-02  0.325721365800E-02  0.336313862643E-02  0.347250886764E-02  0.358543649963E-02
  0.370203729494E-02  0.382243080029E-02  0.394674046034E-02  0.407509374543E-02  0.420762228371E-02
  0.434446199759E-02  0.448575324484E-02  0.463164096432E-02  0.478227482671E-02  0.493780939025E-02
  0.509840426173E-02  0.526422426297E-02  0.543543960291E-02  0.561222605557E-02  0.579476514403E-02
  0.598324433077E-02  0.617785721451E-02  0.637880373377E-02  0.658629037755E-02  0.680053040322E-02
  0.702174406209E-02  0.725015883278E-02  0.748600966280E-02  0.772953921871E-02  0.798099814501E-02
  0.824064533240E-02  0.850874819555E-02  0.878558296089E-02  0.907143496485E-02  0.936659896299E-02
  0.967137945040E-02  0.998609099403E-02  0.103110585773E-01  0.106466179579E-01  0.109931160386E-01
  0.113509112527E-01  0.117203739643E-01  0.121018868838E-01  0.124958454998E-01  0.129026585284E-01
  0.133227483798E-01  0.137565516450E-01  0.142045196009E-01  0.146671187374E-01  0.151448313065E-01
  0.156381558939E-01  0.161476080161E-01  0.166737207431E-01  0.172170453485E-01  0.177781519889E-01
  0.183576304142E-01  0.189560907101E-01  0.195741640765E-01  0.202125036413E-01  0.208717853153E-01
  0.215527086870E-01  0.222559979642E-01  0.229824029612E-01  0.237327001384E-01  0.245076936957E-01
  0.253082167239E-01  0.261351324192E-01  0.269893353639E-01  0.278717528792E-01  0.287833464550E-01
  0.297251132629E-01  0.306980877575E-01  0.317033433749E-01  0.327419943338E-01  0.338151975481E-01
  0.349241546606E-01  0.360701142058E-01  0.372543739141E-01  0.384782831669E-01  0.397432456167E-01
  0.410507219849E-01  0.424022330519E-01  0.437993628562E-01  0.452437621197E-01  0.467371519179E-01
  0.482813276167E-01  0.498781630975E-01  0.515296152956E-01  0.532377290790E-01  0.550046424965E-01
  0.568325924267E-01  0.587239206622E-01  0.606810804677E-01  0.627066436508E-01  0.648033081908E-01
  0.669739064736E-01  0.692214141832E-01  0.715489599075E-01  0.739598355171E-01  0.764575073843E-01
  0.790456285119E-01  0.817280516478E-01  0.845088434667E-01  0.873922999070E-01  0.903829627566E-01
  0.934856375870E-01  0.967054131421E-01  0.100047682297E+00  0.103518164701E+00  0.107122931243E+00
  0.110868430453E+00  0.114761516995E+00  0.118809482393E+00  0.123020088119E+00  0.127401601228E+00
  0.131962832653E+00  0.136713178349E+00  0.141662663406E+00  0.146821989294E+00  0.152202584358E+00
  0.157816657689E+00  0.163677256466E+00  0.169798326830E+00  0.176194778329E+00  0.182882551910E+00
  0.189878691383E+00  0.197201418202E+00  0.204870209314E+00  0.212905877730E+00  0.221330655295E+00
  0.230168277020E+00  0.239444066090E+00  0.249185018467E+00  0.259419885683E+00  0.270179254119E+00
  0.281495618668E+00  0.293403448198E+00  0.305939239737E+00  0.319141557645E+00  0.333051053365E+00
  0.347710460491E+00  0.363164558988E+00  0.379460101304E+00  0.396645691954E+00  0.414771610776E+00
  0.433889568579E+00  0.454052382224E+00  0.475313554395E+00  0.497726741291E+00  0.521345089410E+00
  0.546220420320E+00  0.572402240048E+00  0.599936547336E+00  0.628864412778E+00  0.659220298727E+00
  0.691030088019E+00  0.724308788277E+00  0.759057877915E+00  0.795262260344E+00  0.832886794681E+00
  0.871872374788E+00  0.912131534389E+00  0.953543564856E+00  0.995949144801E+00  0.103914449766E+01
  0.108287511594E+01  0.112682911972E+01  0.117063035360E+01  0.121383137097E+01  0.125590650969E+01
  0.129624532777E+01  0.133414674392E+01  0.136881431490E+01  0.139935317841E+01  0.142476929598E+01
  0.144397174083E+01  0.145577888579E+01  0.145892944883E+01  0.145209943768E+01  0.143392608553E+01
  0.140303986957E+01  0.135810562953E+01  0.129787362727E+01  0.122124108007E+01  0.112732422514E+01
  0.101554029692E+01  0.885697890921E+00  0.738093026186E+00  0.573618007034E+00  0.393903676411E+00
  0.201235094287E+00 -0.149192156840E-02  0.000000000000E+00  0.000000000000E+00  0.000000000000E+00
  0.000000000000E+00  0.000000000000E+00  0.000000000000E+00  0.000000000000E+00  0.000000000000E+00
  0.000000000000E+00  0.000000000000E+00  0.000000000000E+00  0.000000000000E+00  0.000000000000E+00
  0.000000000000E+00  0.000000000000E+00  0.000000000000E+00  0.000000000000E+00  0.000000000000E+00
  0.000000000000E+00  0.000000000000E+00  0.000000000000E+00  0.000000000000E+00  0.000000000000E+00
  0.000000000000E+00  0.000000000000E+00  0.000000000000E+00  0.000000000000E+00  0.000000000000E+00
  0.000000000000E+00  0.000000000000E+00  0.000000000000E+00  0.000000000000E+00  0.000000000000E+00
  0.000000000000E+00  0.000000000000E+00  0.000000000000E+00  0.000000000000E+00  0.000000000000E+00
  0.000000000000E+00
 ae wavefunction
  0.103674531167E-02  0.107032175251E-02  0.110498479147E-02  0.114076953973E-02  0.117771223957E-02
  0.121585030066E-02  0.125522233741E-02  0.129586820744E-02  0.133782905139E-02  0.138114733387E-02
  0.142586688578E-02  0.147203294786E-02  0.151969221577E-02  0.156889288636E-02  0.161968470562E-02
  0.167211901797E-02  0.172624881715E-02  0.178212879869E-02  0.183981541401E-02  0.189936692626E-02
  0.196084346779E-02  0.202430709950E-02  0.208982187200E-02  0.215745388862E-02  0.222727137047E-02
  0.229934472338E-02  0.237374660702E-02  0.245055200607E-02  0.252983830364E-02  0.261168535683E-02
  0.269617557474E-02  0.278339399878E-02  0.287342838542E-02  0.296636929149E-02  0.306231016207E-02
  0.316134742100E-02  0.326358056417E-02  0.336911225556E-02  0.347804842622E-02  0.359049837621E-02
  0.370657487952E-02  0.382639429221E-02  0.395007666366E-02  0.407774585118E-02  0.420952963800E-02
  0.434555985467E-02  0.448597250406E-02  0.463090789002E-02  0.478051074970E-02  0.493493038981E-02
  0.509432082670E-02  0.525884093052E-02  0.542865457352E-02  0.560393078241E-02  0.578484389529E-02
  0.597157372273E-02  0.616430571347E-02  0.636323112482E-02  0.656854719761E-02  0.678045733590E-02
  0.699917129196E-02  0.722490535563E-02  0.745788254970E-02  0.769833282918E-02  0.794649328741E-02
  0.820260836618E-02  0.846693007227E-02  0.873971819910E-02  0.902124055411E-02  0.931177319207E-02
  0.961160065404E-02  0.992101621221E-02  0.102403221209E-01  0.105698298733E-01  0.109098604649E-01
  0.112607446621E-01  0.116228232782E-01  0.119964474546E-01  0.123819789490E-01  0.127797904295E-01
  0.131902657749E-01  0.136138003821E-01  0.140508014785E-01  0.145016884418E-01  0.149668931254E-01
  0.154468601902E-01  0.159420474421E-01  0.164529261760E-01  0.169799815252E-01  0.175237128163E-01
  0.180846339307E-01  0.186632736700E-01  0.192601761271E-01  0.198759010624E-01  0.205110242836E-01
  0.211661380315E-01  0.218418513665E-01  0.225387905621E-01  0.232575994983E-01  0.239989400588E-01
  0.247634925299E-01  0.255519560005E-01  0.263650487617E-01  0.272035087078E-01  0.280680937342E-01
  0.289595821350E-01  0.298787729961E-01  0.308264865852E-01  0.318035647360E-01  0.328108712256E-01
  0.338492921446E-01  0.349197362572E-01  0.360231353500E-01  0.371604445692E-01  0.383326427411E-01
  0.395407326778E-01  0.407857414629E-01  0.420687207163E-01  0.433907468348E-01  0.447529212069E-01
  0.461563703980E-01  0.476022463026E-01  0.490917262615E-01  0.506260131392E-01  0.522063353584E-01
  0.538339468866E-01  0.555101271730E-01  0.572361810264E-01  0.590134384358E-01  0.608432543206E-01
  0.627270082125E-01  0.646661038575E-01  0.666619687357E-01  0.687160534875E-01  0.708298312459E-01
  0.730047968599E-01  0.752424660073E-01  0.775443741847E-01  0.799120755669E-01  0.823471417271E-01
  0.848511602068E-01  0.874257329253E-01  0.900724744185E-01  0.927930098947E-01  0.955889730944E-01
  0.984620039428E-01  0.101413745982E+00  0.104445843566E+00  0.107559938804E+00  0.110757668243E+00
  0.114040659263E+00  0.117410526177E+00  0.120868866010E+00  0.124417253949E+00  0.128057238431E+00
  0.131790335870E+00  0.135618024972E+00  0.139541740651E+00  0.143562867498E+00  0.147682732788E+00
  0.151902599018E+00  0.156223655915E+00  0.160647011933E+00  0.165173685185E+00  0.169804593789E+00
  0.174540545611E+00  0.179382227381E+00  0.184330193133E+00  0.189384851975E+00  0.194546455140E+00
  0.199815082296E+00  0.205190627105E+00  0.210672781980E+00  0.216261022041E+00  0.221954588234E+00
  0.227752469589E+00  0.233653384617E+00  0.239655761796E+00  0.245757719167E+00  0.251957042994E+00
  0.258251165510E+00  0.264637141714E+00  0.271111625242E+00  0.277670843300E+00  0.284310570680E+00
  0.291026102856E+00  0.297812228205E+00  0.304663199367E+00  0.311572703777E+00  0.318533833436E+00
  0.325539053958E+00  0.332580172962E+00  0.339648307909E+00  0.346733853443E+00  0.353826448373E+00
  0.360914942399E+00  0.367987362726E+00  0.375030880719E+00  0.382031778775E+00  0.388975417602E+00
  0.395846204122E+00  0.402627560236E+00  0.409301892705E+00  0.415850564438E+00  0.422253867495E+00
  0.428490998149E+00  0.434540034355E+00  0.440377916042E+00  0.445980428642E+00  0.451322190307E+00
  0.456376643305E+00  0.461116050117E+00  0.465511494767E+00  0.469532889981E+00  0.473148990782E+00
  0.476327415147E+00  0.479034672412E+00  0.481236200120E+00  0.482896410014E+00  0.483978743937E+00
  0.484445740395E+00  0.484259112553E+00  0.483379838459E+00  0.481768264275E+00  0.479384221302E+00
  0.476187157607E+00  0.472136284940E+00  0.467190741760E+00  0.461309772964E+00  0.454452927041E+00
  0.446580271138E+00  0.437652624603E+00  0.427631811309E+00  0.416480931113E+00  0.404164650514E+00
  0.390649512544E+00  0.375904265677E+00  0.359900211372E+00  0.342611569664E+00  0.324015861985E+00
  0.304094310119E+00  0.282832250009E+00  0.260219558777E+00  0.236251093106E+00  0.210927136804E+00
  0.184253855054E+00  0.156243752539E+00  0.126916132225E+00  0.962975511409E-01  0.644222689520E-01
  0.313326844135E-01 -0.292024603891E-02 -0.382766143371E-01 -0.746671993660E-01 -0.112013146927E+00
 -0.150225700372E+00 -0.189205990247E+00 -0.228844888130E+00 -0.269022923550E+00 -0.309610253674E+00
 -0.350466665355E+00 -0.391441582832E+00 -0.432374057832E+00 -0.473092736529E+00 -0.513415828956E+00
 -0.553151142314E+00 -0.592096265953E+00 -0.630038995219E+00 -0.666758045986E+00 -0.702024051848E+00
 -0.735600782167E+00 -0.767246499509E+00 -0.796715394636E+00 -0.823759073103E+00 -0.848128097786E+00
 -0.869573603113E+00 -0.887848994169E+00 -0.902711734736E+00 -0.913925218353E+00 -0.921260709885E+00
 -0.924499341609E+00 -0.923434147407E+00 -0.917872120256E+00 -0.907636280448E+00 -0.892567745537E+00
 -0.872527795625E+00 -0.847399930724E+00 -0.817091920045E+00 -0.781537845144E+00 -0.740700141644E+00
 -0.694571645877E+00 -0.643177654312E+00 -0.586578004594E+00 -0.524869186627E+00 -0.458186491439E+00
 -0.386706203398E+00 -0.310647837216E+00 -0.230276417270E+00 -0.145904789190E+00 -0.578959463583E-01
  0.333346560128E-01  0.127316837351E+00  0.223523529228E+00  0.321368777376E+00  0.420205985371E+00
  0.519326491262E+00  0.617958581079E+00  0.715267057598E+00  0.810353494585E+00  0.902257320802E+00
  0.989957893830E+00  0.107237774445E+01  0.114838720077E+01  0.121681064086E+01  0.127643467591E+01
  0.132601862363E+01  0.136430771100E+01  0.139004949237E+01  0.140201402335E+01  0.139901832871E+01
  0.137995566017E+01  0.134382994283E+01  0.128979566489E+01  0.121720328371E+01  0.112564999927E+01
  0.101503543261E+01  0.885621210180E+00  0.738092492242E+00  0.573618007034E+00  0.393903676411E+00
  0.201235094287E+00 -0.149192156840E-02  0.000000000000E+00  0.000000000000E+00  0.000000000000E+00
  0.000000000000E+00  0.000000000000E+00  0.000000000000E+00  0.000000000000E+00  0.000000000000E+00
  0.000000000000E+00  0.000000000000E+00  0.000000000000E+00  0.000000000000E+00  0.000000000000E+00
  0.000000000000E+00  0.000000000000E+00  0.000000000000E+00  0.000000000000E+00  0.000000000000E+00
  0.000000000000E+00  0.000000000000E+00  0.000000000000E+00  0.000000000000E+00  0.000000000000E+00
  0.000000000000E+00  0.000000000000E+00  0.000000000000E+00  0.000000000000E+00  0.000000000000E+00
  0.000000000000E+00  0.000000000000E+00  0.000000000000E+00  0.000000000000E+00  0.000000000000E+00
  0.000000000000E+00  0.000000000000E+00  0.000000000000E+00  0.000000000000E+00  0.000000000000E+00
  0.000000000000E+00
 End of Dataset
  PAW_PBE I 08Apr2002                    
   7.00000000000000     
 parameters from PSCTR are:
   VRHFIN =I : s2p5
   LEXCH  = PE
   EATOM  =   315.8678 eV,   23.2156 Ry

   TITEL  = PAW_PBE I 08Apr2002
   LULTRA =        F    use ultrasoft PP ?
   IUNSCR =        1    unscreen: 0-lin 1-nonlin 2-no
   RPACOR =    2.200    partial core radius
   POMASS =  126.904; ZVAL   =    7.000    mass and valenz
   RCORE  =    2.300    outmost cutoff radius
   RWIGS  =    2.810; RWIGS  =    1.487    wigner-seitz radius (au A)
   ENMAX  =  175.647; ENMIN  =  131.735 eV
   ICORE  =        3    local potential
   LCOR   =        T    correct aug charges
   LPAW   =        T    paw PP
   EAUG   =  370.139
   DEXC   =    0.000
   RMAX   =    2.359    core radius for proj-oper
   RAUG   =    1.300    factor for augmentation sphere
   RDEP   =    2.392    radius for radial grids
   RDEPT  =    2.170    core radius for aug-charge
 
   Atomic configuration
   13 entries
     n  l   j            E        occ.
     1  0  0.50    -32976.3739   2.0000
     2  0  0.50     -5094.5933   2.0000
     2  1  1.50     -4572.0131   6.0000
     3  0  0.50     -1028.2813   2.0000
     3  1  1.50      -859.0250   6.0000
     3  2  2.50      -605.7620  10.0000
     4  0  0.50      -180.5540   2.0000
     4  1  1.50      -127.5306   6.0000
     4  2  2.50       -50.2720  10.0000
     5  0  0.50       -17.4058   2.0000
     5  1  0.50        -7.0851   5.0000
     5  2  1.50        -7.0750   0.0000
     4  3  2.50        -7.0750   0.0000
   Description
     l       E           TYP  RCUT    TYP  RCUT
     0    -17.4058016     23  2.300
     0    -18.7663842     23  2.300
     1     -7.0850686     23  2.300
     1     -4.2150896     23  2.300
     2     -7.0750295     23  2.300
     3     -1.3605826     23  2.300
   Error from kinetic energy argument (eV)
   NDATA  =      100
   STEP   =   20.000   1.050
  49.9      46.0      44.0      40.3      38.5      35.1      31.9      30.3
  27.4      24.7      23.4      21.0      18.8      16.7      14.9      13.2
  11.7      10.3      9.09      7.49      6.57      5.75      4.69      4.09
  3.56      2.89      2.34      2.02      1.63      1.31      1.06     0.848
 0.681     0.546     0.438     0.351     0.261     0.208     0.154     0.123
 0.908E-01 0.667E-01 0.488E-01 0.355E-01 0.258E-01 0.188E-01 0.138E-01 0.957E-02
 0.743E-02 0.580E-02 0.493E-02 0.457E-02 0.434E-02 0.421E-02 0.404E-02 0.381E-02
 0.351E-02 0.307E-02 0.259E-02 0.213E-02 0.173E-02 0.142E-02 0.121E-02 0.107E-02
 0.100E-02 0.955E-03 0.905E-03 0.832E-03 0.721E-03 0.614E-03 0.503E-03 0.420E-03
 0.370E-03 0.344E-03 0.325E-03 0.304E-03 0.270E-03 0.229E-03 0.187E-03 0.162E-03
 0.147E-03 0.139E-03 0.129E-03 0.112E-03 0.937E-04 0.792E-04 0.712E-04 0.667E-04
 0.613E-04 0.531E-04 0.440E-04 0.387E-04 0.358E-04 0.332E-04 0.287E-04 0.240E-04
 0.212E-04 0.200E-04 0.178E-04 0.151E-04
END of PSCTR-controll parameters
 local part
   81.2582175088937     
  0.19013236E+02  0.19029327E+02  0.19096154E+02  0.19207326E+02  0.19362531E+02
  0.19561332E+02  0.19803156E+02  0.20087297E+02  0.20412914E+02  0.20779025E+02
  0.21184516E+02  0.21628134E+02  0.22108499E+02  0.22624106E+02  0.23173335E+02
  0.23754455E+02  0.24365638E+02  0.25004960E+02  0.25670417E+02  0.26359925E+02
  0.27071333E+02  0.27802423E+02  0.28550921E+02  0.29314502E+02  0.30090796E+02
  0.30877392E+02  0.31671850E+02  0.32471703E+02  0.33274469E+02  0.34077660E+02
  0.34878784E+02  0.35675360E+02  0.36464922E+02  0.37245031E+02  0.38013278E+02
  0.38767292E+02  0.39504751E+02  0.40223385E+02  0.40920986E+02  0.41595409E+02
  0.42244587E+02  0.42866530E+02  0.43459336E+02  0.44021194E+02  0.44550394E+02
  0.45045326E+02  0.45504491E+02  0.45926503E+02  0.46310090E+02  0.46654102E+02
  0.46957514E+02  0.47219423E+02  0.47439058E+02  0.47615775E+02  0.47749063E+02
  0.47838545E+02  0.47883974E+02  0.47885241E+02  0.47842366E+02  0.47755503E+02
  0.47624939E+02  0.47451086E+02  0.47234487E+02  0.46975804E+02  0.46675824E+02
  0.46335448E+02  0.45955692E+02  0.45537679E+02  0.45082637E+02  0.44591891E+02
  0.44066861E+02  0.43509055E+02  0.42920061E+02  0.42301542E+02  0.41655232E+02
  0.40982923E+02  0.40286463E+02  0.39567747E+02  0.38828709E+02  0.38071317E+02
  0.37297563E+02  0.36509455E+02  0.35709012E+02  0.34898256E+02  0.34079204E+02
  0.33253859E+02  0.32424207E+02  0.31592205E+02  0.30759777E+02  0.29928809E+02
  0.29101137E+02  0.28278545E+02  0.27462760E+02  0.26655442E+02  0.25858184E+02
  0.25072503E+02  0.24299839E+02  0.23541549E+02  0.22798903E+02  0.22073082E+02
  0.21365177E+02  0.20676180E+02  0.20006990E+02  0.19358407E+02  0.18731133E+02
  0.18125770E+02  0.17542820E+02  0.16982689E+02  0.16445683E+02  0.15932011E+02
  0.15441789E+02  0.14975039E+02  0.14531694E+02  0.14111598E+02  0.13714512E+02
  0.13340117E+02  0.12988016E+02  0.12657739E+02  0.12348751E+02  0.12060448E+02
  0.11792174E+02  0.11543213E+02  0.11312806E+02  0.11100146E+02  0.10904392E+02
  0.10724668E+02  0.10560072E+02  0.10409680E+02  0.10272551E+02  0.10147735E+02
  0.10034274E+02  0.99312102E+01  0.98375897E+01  0.97524681E+01  0.96749146E+01
  0.96040164E+01  0.95388833E+01  0.94786510E+01  0.94224853E+01  0.93695848E+01
  0.93191848E+01  0.92705592E+01  0.92230237E+01  0.91759374E+01  0.91287050E+01
  0.90807779E+01  0.90316560E+01  0.89808880E+01  0.89280722E+01  0.88728565E+01
  0.88149387E+01  0.87540656E+01  0.86900324E+01  0.86226819E+01  0.85519034E+01
  0.84776305E+01  0.83998403E+01  0.83185509E+01  0.82338193E+01  0.81457394E+01
  0.80544395E+01  0.79600796E+01  0.78628484E+01  0.77629611E+01  0.76606560E+01
  0.75561918E+01  0.74498446E+01  0.73419048E+01  0.72326741E+01  0.71224628E+01
  0.70115868E+01  0.69003648E+01  0.67891156E+01  0.66781552E+01  0.65677949E+01
  0.64583382E+01  0.63500790E+01  0.62432993E+01  0.61382674E+01  0.60352360E+01
  0.59344406E+01  0.58360982E+01  0.57404063E+01  0.56475415E+01  0.55576589E+01
  0.54708916E+01  0.53873501E+01  0.53071223E+01  0.52302730E+01  0.51568446E+01
  0.50868570E+01  0.50203082E+01  0.49571750E+01  0.48974135E+01  0.48409604E+01
  0.47877338E+01  0.47376346E+01  0.46905476E+01  0.46463426E+01  0.46048766E+01
  0.45659946E+01  0.45295314E+01  0.44953131E+01  0.44631587E+01  0.44328820E+01
  0.44042927E+01  0.43771983E+01  0.43514057E+01  0.43267226E+01  0.43029590E+01
  0.42799287E+01  0.42574506E+01  0.42353500E+01  0.42134595E+01  0.41916207E+01
  0.41696844E+01  0.41475120E+01  0.41249761E+01  0.41019610E+01  0.40783634E+01
  0.40540929E+01  0.40290720E+01  0.40032366E+01  0.39765359E+01  0.39489325E+01
  0.39204019E+01  0.38909327E+01  0.38605259E+01  0.38291946E+01  0.37969636E+01
  0.37638681E+01  0.37299539E+01  0.36952762E+01  0.36598985E+01  0.36238925E+01
  0.35873365E+01  0.35503146E+01  0.35129162E+01  0.34752343E+01  0.34373653E+01
  0.33994072E+01  0.33614593E+01  0.33236209E+01  0.32859902E+01  0.32486641E+01
  0.32117365E+01  0.31752980E+01  0.31394350E+01  0.31042293E+01  0.30697569E+01
  0.30360880E+01  0.30032859E+01  0.29714074E+01  0.29405015E+01  0.29106099E+01
  0.28817662E+01  0.28539961E+01  0.28273173E+01  0.28017395E+01  0.27772644E+01
  0.27538860E+01  0.27315907E+01  0.27103576E+01  0.26901590E+01  0.26709607E+01
  0.26527223E+01  0.26353979E+01  0.26189363E+01  0.26032822E+01  0.25883759E+01
  0.25741547E+01  0.25605529E+01  0.25475031E+01  0.25349361E+01  0.25227822E+01
  0.25109714E+01  0.24994341E+01  0.24881019E+01  0.24769080E+01  0.24657876E+01
  0.24546786E+01  0.24435223E+01  0.24322631E+01  0.24208499E+01  0.24092356E+01
  0.23973778E+01  0.23852390E+01  0.23727868E+01  0.23599943E+01  0.23468397E+01
  0.23333066E+01  0.23193842E+01  0.23050671E+01  0.22903550E+01  0.22752528E+01
  0.22597704E+01  0.22439225E+01  0.22277280E+01  0.22112104E+01  0.21943968E+01
  0.21773178E+01  0.21600073E+01  0.21425017E+01  0.21248400E+01  0.21070628E+01
  0.20892124E+01  0.20713319E+01  0.20534652E+01  0.20356559E+01  0.20179479E+01
  0.20003838E+01  0.19830055E+01  0.19658534E+01  0.19489658E+01  0.19323792E+01
  0.19161272E+01  0.19002411E+01  0.18847488E+01  0.18696753E+01  0.18550420E+01
  0.18408667E+01  0.18271638E+01  0.18139437E+01  0.18012133E+01  0.17889755E+01
  0.17772296E+01  0.17659715E+01  0.17551931E+01  0.17448832E+01  0.17350274E+01
  0.17256080E+01  0.17166045E+01  0.17079940E+01  0.16997510E+01  0.16918479E+01
  0.16842556E+01  0.16769432E+01  0.16698788E+01  0.16630294E+01  0.16563618E+01
  0.16498424E+01  0.16434375E+01  0.16371139E+01  0.16308393E+01  0.16245820E+01
  0.16183116E+01  0.16119994E+01  0.16056180E+01  0.15991424E+01  0.15925493E+01
  0.15858180E+01  0.15789300E+01  0.15718695E+01  0.15646234E+01  0.15571812E+01
  0.15495352E+01  0.15416805E+01  0.15336149E+01  0.15253390E+01  0.15168559E+01
  0.15081715E+01  0.14992940E+01  0.14902339E+01  0.14810041E+01  0.14716194E+01
  0.14620963E+01  0.14524533E+01  0.14427100E+01  0.14328873E+01  0.14230073E+01
  0.14130925E+01  0.14031662E+01  0.13932518E+01  0.13833729E+01  0.13735528E+01
  0.13638145E+01  0.13541803E+01  0.13446717E+01  0.13353092E+01  0.13261121E+01
  0.13170983E+01  0.13082842E+01  0.12996846E+01  0.12913124E+01  0.12831786E+01
  0.12752923E+01  0.12676606E+01  0.12602886E+01  0.12531792E+01  0.12463332E+01
  0.12397496E+01  0.12334251E+01  0.12273547E+01  0.12215312E+01  0.12159461E+01
  0.12105887E+01  0.12054470E+01  0.12005076E+01  0.11957558E+01  0.11911758E+01
  0.11867506E+01  0.11824628E+01  0.11782942E+01  0.11742261E+01  0.11702398E+01
  0.11663164E+01  0.11624370E+01  0.11585832E+01  0.11547368E+01  0.11508805E+01
  0.11469976E+01  0.11430722E+01  0.11390897E+01  0.11350364E+01  0.11309001E+01
  0.11266699E+01  0.11223363E+01  0.11178913E+01  0.11133286E+01  0.11086434E+01
  0.11038325E+01  0.10988942E+01  0.10938287E+01  0.10886375E+01  0.10833237E+01
  0.10778920E+01  0.10723484E+01  0.10667001E+01  0.10609558E+01  0.10551253E+01
  0.10492191E+01  0.10432490E+01  0.10372273E+01  0.10311670E+01  0.10250816E+01
  0.10189851E+01  0.10128914E+01  0.10068147E+01  0.10007690E+01  0.99476839E+00
  0.98882625E+00  0.98295571E+00  0.97716927E+00  0.97147874E+00  0.96589514E+00
  0.96042854E+00  0.95508806E+00  0.94988174E+00  0.94481646E+00  0.93989795E+00
  0.93513070E+00  0.93051795E+00  0.92606169E+00  0.92176264E+00  0.91762023E+00
  0.91363269E+00  0.90979704E+00  0.90610909E+00  0.90256359E+00  0.89915419E+00
  0.89587360E+00  0.89271361E+00  0.88966521E+00  0.88671868E+00  0.88386371E+00
  0.88108948E+00  0.87838477E+00  0.87573810E+00  0.87313783E+00  0.87057223E+00
  0.86802967E+00  0.86549864E+00  0.86296792E+00  0.86042666E+00  0.85786448E+00
  0.85527155E+00  0.85263870E+00  0.84995750E+00  0.84722031E+00  0.84442035E+00
  0.84155176E+00  0.83860964E+00  0.83559006E+00  0.83249012E+00  0.82930792E+00
  0.82604259E+00  0.82269427E+00  0.81926412E+00  0.81575425E+00  0.81216774E+00
  0.80850856E+00  0.80478153E+00  0.80099226E+00  0.79714709E+00  0.79325301E+00
  0.78931758E+00  0.78534884E+00  0.78135526E+00  0.77734559E+00  0.77332881E+00
  0.76931406E+00  0.76531049E+00  0.76132722E+00  0.75737325E+00  0.75345734E+00
  0.74958796E+00  0.74577319E+00  0.74202065E+00  0.73833744E+00  0.73473003E+00
  0.73120429E+00  0.72776534E+00  0.72441758E+00  0.72116463E+00  0.71800929E+00
  0.71495357E+00  0.71199863E+00  0.70914481E+00  0.70639160E+00  0.70373770E+00
  0.70118101E+00  0.69871867E+00  0.69634706E+00  0.69406190E+00  0.69185826E+00
  0.68973062E+00  0.68767294E+00  0.68567872E+00  0.68374107E+00  0.68185278E+00
  0.68000640E+00  0.67819429E+00  0.67640872E+00  0.67464195E+00  0.67288625E+00
  0.67113406E+00  0.66937795E+00  0.66761081E+00  0.66582581E+00  0.66401653E+00
  0.66217700E+00  0.66030173E+00  0.65838581E+00  0.65642488E+00  0.65441523E+00
  0.65235378E+00  0.65023811E+00  0.64806651E+00  0.64583793E+00  0.64355203E+00
  0.64120913E+00  0.63881024E+00  0.63635703E+00  0.63385180E+00  0.63129744E+00
  0.62869743E+00  0.62605575E+00  0.62337690E+00  0.62066577E+00  0.61792763E+00
  0.61516809E+00  0.61239300E+00  0.60960840E+00  0.60682048E+00  0.60403550E+00
  0.60125973E+00  0.59849939E+00  0.59576061E+00  0.59304933E+00  0.59037128E+00
  0.58773190E+00  0.58513631E+00  0.58258925E+00  0.58009504E+00  0.57765751E+00
  0.57528003E+00  0.57296544E+00  0.57071603E+00  0.56853354E+00  0.56641912E+00
  0.56437339E+00  0.56239635E+00  0.56048745E+00  0.55864558E+00  0.55686908E+00
  0.55515578E+00  0.55350298E+00  0.55190753E+00  0.55036586E+00  0.54887399E+00
  0.54742758E+00  0.54602202E+00  0.54465241E+00  0.54331367E+00  0.54200056E+00
  0.54070773E+00  0.53942978E+00  0.53816133E+00  0.53689702E+00  0.53563162E+00
  0.53436003E+00  0.53307738E+00  0.53177900E+00  0.53046055E+00  0.52911801E+00
  0.52774770E+00  0.52634636E+00  0.52491116E+00  0.52343970E+00  0.52193004E+00
  0.52038073E+00  0.51879079E+00  0.51715972E+00  0.51548753E+00  0.51377469E+00
  0.51202215E+00  0.51023132E+00  0.50840404E+00  0.50654259E+00  0.50464961E+00
  0.50272813E+00  0.50078149E+00  0.49881332E+00  0.49682751E+00  0.49482813E+00
  0.49281943E+00  0.49080579E+00  0.48879165E+00  0.48678149E+00  0.48477978E+00
  0.48279095E+00  0.48081930E+00  0.47886903E+00  0.47694413E+00  0.47504839E+00
  0.47318535E+00  0.47135826E+00  0.46957003E+00  0.46782325E+00  0.46612015E+00
  0.46446256E+00  0.46285192E+00  0.46128927E+00  0.45977523E+00  0.45831002E+00
  0.45689342E+00  0.45552483E+00  0.45420324E+00  0.45292725E+00  0.45169509E+00
  0.45050465E+00  0.44935347E+00  0.44823882E+00  0.44715768E+00  0.44610679E+00
  0.44508271E+00  0.44408181E+00  0.44310035E+00  0.44213449E+00  0.44118033E+00
  0.44023396E+00  0.43929148E+00  0.43834907E+00  0.43740297E+00  0.43644957E+00
  0.43548542E+00  0.43450725E+00  0.43351205E+00  0.43249704E+00  0.43145972E+00
  0.43039789E+00  0.42930969E+00  0.42819356E+00  0.42704832E+00  0.42587311E+00
  0.42466744E+00  0.42343117E+00  0.42216452E+00  0.42086805E+00  0.41954269E+00
  0.41818965E+00  0.41681051E+00  0.41540710E+00  0.41398155E+00  0.41253625E+00
  0.41107378E+00  0.40959695E+00  0.40810872E+00  0.40661219E+00  0.40511055E+00
  0.40360707E+00  0.40210505E+00  0.40060781E+00  0.39911864E+00  0.39764075E+00
  0.39617730E+00  0.39473129E+00  0.39330560E+00  0.39190292E+00  0.39052574E+00
  0.38917632E+00  0.38785667E+00  0.38656854E+00  0.38531341E+00  0.38409244E+00
  0.38290652E+00  0.38175622E+00  0.38064181E+00  0.37956325E+00  0.37852018E+00
  0.37751197E+00  0.37653766E+00  0.37559605E+00  0.37468563E+00  0.37380467E+00
  0.37295120E+00  0.37212303E+00  0.37131778E+00  0.37053294E+00  0.36976582E+00
  0.36901367E+00  0.36827362E+00  0.36754278E+00  0.36681822E+00  0.36609701E+00
  0.36537628E+00  0.36465318E+00  0.36392497E+00  0.36318904E+00  0.36244288E+00
  0.36168416E+00  0.36091075E+00  0.36012070E+00  0.35931230E+00  0.35848405E+00
  0.35763474E+00  0.35676338E+00  0.35586925E+00  0.35495192E+00  0.35401120E+00
  0.35304718E+00  0.35206023E+00  0.35105094E+00  0.35002021E+00  0.34896913E+00
  0.34789904E+00  0.34681151E+00  0.34570829E+00  0.34459129E+00  0.34346262E+00
  0.34232448E+00  0.34117921E+00  0.34002922E+00  0.33887698E+00  0.33772499E+00
  0.33657579E+00  0.33543189E+00  0.33429574E+00  0.33316977E+00  0.33205631E+00
  0.33095757E+00  0.32987564E+00  0.32881248E+00  0.32776985E+00  0.32674935E+00
  0.32575237E+00  0.32478009E+00  0.32383347E+00  0.32291324E+00  0.32201990E+00
  0.32115372E+00  0.32031473E+00  0.31950272E+00  0.31871725E+00  0.31795766E+00
  0.31722308E+00  0.31651241E+00  0.31582436E+00  0.31515746E+00  0.31451008E+00
  0.31388043E+00  0.31326660E+00  0.31266655E+00  0.31207818E+00  0.31149931E+00
  0.31092772E+00  0.31036114E+00  0.30979735E+00  0.30923410E+00  0.30866920E+00
  0.30810053E+00  0.30752603E+00  0.30694377E+00  0.30635191E+00  0.30574878E+00
  0.30513283E+00  0.30450270E+00  0.30385721E+00  0.30319536E+00  0.30251636E+00
  0.30181961E+00  0.30110473E+00  0.30037153E+00  0.29962005E+00  0.29885052E+00
  0.29806338E+00  0.29725927E+00  0.29643901E+00  0.29560361E+00  0.29475425E+00
  0.29389226E+00  0.29301911E+00  0.29213642E+00  0.29124589E+00  0.29034931E+00
  0.28944856E+00  0.28854556E+00  0.28764227E+00  0.28674065E+00  0.28584266E+00
  0.28495024E+00  0.28406529E+00  0.28318963E+00  0.28232503E+00  0.28147313E+00
  0.28063549E+00  0.27981352E+00  0.27900849E+00  0.27822153E+00  0.27745359E+00
  0.27670545E+00  0.27597773E+00  0.27527086E+00  0.27458506E+00  0.27392041E+00
  0.27327677E+00  0.27265383E+00  0.27205111E+00  0.27146794E+00  0.27090351E+00
  0.27035681E+00  0.26982673E+00  0.26931200E+00  0.26881123E+00  0.26832294E+00
  0.26784555E+00  0.26737739E+00  0.26691677E+00  0.26646193E+00  0.26601111E+00
  0.26556254E+00  0.26511444E+00  0.26466509E+00  0.26421280E+00  0.26375595E+00
  0.26329298E+00  0.26282244E+00  0.26234298E+00  0.26185337E+00  0.26135250E+00
  0.26083942E+00  0.26031331E+00  0.25977354E+00  0.25921960E+00  0.25865116E+00
  0.25806806E+00  0.25747030E+00  0.25685805E+00  0.25623163E+00  0.25559153E+00
  0.25493838E+00  0.25427297E+00  0.25359622E+00  0.25290916E+00  0.25221297E+00
  0.25150890E+00  0.25079830E+00  0.25008260E+00  0.24936329E+00  0.24864189E+00
  0.24791996E+00  0.24719907E+00  0.24648079E+00  0.24576666E+00  0.24505821E+00
  0.24435690E+00  0.24366415E+00  0.24298130E+00  0.24230958E+00  0.24165015E+00
  0.24100404E+00  0.24037217E+00  0.23975532E+00  0.23915414E+00  0.23856913E+00
  0.23800066E+00  0.23744893E+00  0.23691402E+00  0.23639583E+00  0.23589413E+00
  0.23540856E+00  0.23493860E+00  0.23448360E+00  0.23404279E+00  0.23361527E+00
  0.23320005E+00  0.23279601E+00  0.23240198E+00  0.23201669E+00  0.23163881E+00
  0.23126697E+00  0.23089978E+00  0.23053581E+00  0.23017362E+00  0.22981181E+00
  0.22944897E+00  0.22908373E+00  0.22871478E+00  0.22834088E+00  0.22796082E+00
  0.22757352E+00  0.22717796E+00  0.22677326E+00  0.22635863E+00  0.22593339E+00
  0.22549701E+00  0.22504907E+00  0.22458931E+00  0.22411757E+00  0.22363385E+00
  0.22313827E+00  0.22263108E+00  0.22211267E+00  0.22158353E+00  0.22104430E+00
  0.22049571E+00  0.21993860E+00  0.21937390E+00  0.21880263E+00  0.21822589E+00
  0.21764483E+00  0.21706066E+00  0.21647461E+00  0.21588796E+00  0.21530197E+00
  0.21471794E+00  0.21413711E+00  0.21356074E+00  0.21299001E+00  0.21242610E+00
  0.21187008E+00  0.21132300E+00  0.21078578E+00  0.21025928E+00  0.20974426E+00
  0.20924138E+00  0.20875116E+00  0.20827403E+00  0.20781030E+00  0.20736014E+00
  0.20692363E+00  0.20650070E+00  0.20609117E+00  0.20569475E+00  0.20531102E+00
  0.20493947E+00  0.20457946E+00  0.20423029E+00  0.20389112E+00  0.20356107E+00
  0.20323917E+00  0.20292438E+00  0.20261563E+00  0.20231179E+00  0.20201171E+00
  0.20171422E+00  0.20141816E+00  0.20112234E+00  0.20082564E+00  0.20052692E+00
  0.20022509E+00  0.19991913E+00  0.19960806E+00  0.19929097E+00  0.19896702E+00
  0.19863548E+00  0.19829568E+00  0.19794708E+00  0.19758923E+00  0.19722176E+00
  0.19684447E+00  0.19645721E+00  0.19605997E+00  0.19565286E+00  0.19523607E+00
  0.19480991E+00  0.19437481E+00  0.19393126E+00  0.19347987E+00  0.19302133E+00
 gradient corrections used for XC
           5
 core charge-density (partial)
  0.24953748E+01  0.24941107E+01  0.24903221E+01  0.24840198E+01  0.24752223E+01
  0.24639548E+01  0.24502498E+01  0.24341467E+01  0.24156916E+01  0.23949369E+01
  0.23719415E+01  0.23467700E+01  0.23194930E+01  0.22901860E+01  0.22589298E+01
  0.22258097E+01  0.21909153E+01  0.21543399E+01  0.21161803E+01  0.20765364E+01
  0.20355104E+01  0.19932070E+01  0.19497324E+01  0.19051940E+01  0.18597003E+01
  0.18133600E+01  0.17662821E+01  0.17185749E+01  0.16703461E+01  0.16217023E+01
  0.15727484E+01  0.15235875E+01  0.14743208E+01  0.14250465E+01  0.13758604E+01
  0.13268552E+01  0.12781201E+01  0.12297410E+01  0.11818001E+01  0.11343755E+01
  0.10875415E+01  0.10413681E+01  0.99592117E+00  0.95126201E+00  0.90744767E+00
  0.86453072E+00  0.82255923E+00  0.78157681E+00  0.74162263E+00  0.70273143E+00
  0.66493361E+00  0.62825526E+00  0.59271830E+00  0.55834053E+00  0.52513577E+00
  0.49311397E+00  0.46228138E+00  0.43264064E+00  0.40419098E+00  0.37692836E+00
  0.35084563E+00  0.32593272E+00  0.30217681E+00  0.27956247E+00  0.25807191E+00
  0.23768510E+00  0.21837998E+00  0.20013263E+00  0.18291746E+00  0.16670736E+00
  0.15147391E+00  0.13718750E+00  0.12381756E+00  0.11133266E+00  0.99700701E-01
  0.88889048E-01  0.78864684E-01  0.69594340E-01  0.61044633E-01  0.53182182E-01
  0.45973731E-01  0.39386256E-01  0.33387072E-01  0.27943922E-01  0.23025072E-01
  0.18599386E-01  0.14636406E-01  0.11106414E-01  0.79804953E-02  0.52305882E-02
  0.28295332E-02  0.75111134E-03 -0.10299217E-02 -0.25378085E-02 -0.37957678E-02
 -0.48259789E-02 -0.56495704E-02 -0.62866148E-02 -0.67561274E-02 -0.70760700E-02
 -0.72633581E-02 -0.73338731E-02 -0.73024769E-02 -0.71830309E-02 -0.69884171E-02
 -0.67305624E-02 -0.64204657E-02 -0.60682261E-02 -0.56830741E-02 -0.52734040E-02
 -0.48468075E-02 -0.44101085E-02 -0.39693993E-02 -0.35300769E-02 -0.30968799E-02
 -0.26739258E-02 -0.22647482E-02 -0.18723342E-02 -0.14991610E-02 -0.11472325E-02
 -0.81811505E-03 -0.51297282E-03 -0.23260184E-03  0.22536505E-04  0.25228322E-03
  0.45675051E-03  0.63629182E-03  0.79147314E-03  0.92304564E-03  0.10319197E-02
  0.11191402E-02  0.11858635E-02  0.12333357E-02  0.12628720E-02  0.12758387E-02
  0.12736346E-02  0.12576763E-02  0.12293826E-02  0.11901619E-02  0.11414001E-02
  0.10844501E-02  0.10206224E-02  0.95117739E-03  0.87731777E-03  0.80018332E-03
  0.72084582E-03  0.64030540E-03  0.55948768E-03  0.47924179E-03  0.40033925E-03
  0.32347360E-03  0.24926066E-03  0.17823952E-03  0.11087404E-03  0.47554834E-04
 -0.11398205E-04 -0.65733052E-04 -0.11526233E-03 -0.15985979E-03 -0.19945659E-03
 -0.23403733E-03 -0.26363599E-03 -0.28833174E-03 -0.30824470E-03 -0.32353169E-03
 -0.33438195E-03 -0.34101299E-03 -0.34366644E-03 -0.34260403E-03 -0.33810372E-03
 -0.33045594E-03 -0.31996005E-03 -0.30692095E-03 -0.29164590E-03 -0.27444154E-03
 -0.25561118E-03 -0.23545222E-03 -0.21425391E-03 -0.19229529E-03 -0.16984333E-03
 -0.14715137E-03 -0.12445775E-03 -0.10198469E-03 -0.79937350E-04 -0.58503120E-04
 -0.37851137E-04 -0.18131960E-04  0.52255807E-06  0.17999225E-04  0.34203309E-04
  0.49058190E-04  0.62504875E-04  0.74501388E-04  0.85022061E-04  0.94056716E-04
  0.10160977E-03  0.10769929E-03  0.11235593E-03  0.11562191E-03  0.11754986E-03
  0.11820175E-03  0.11764774E-03  0.11596499E-03  0.11323661E-03  0.10955050E-03
  0.10499828E-03  0.99674208E-04  0.93674216E-04  0.87094907E-04  0.80032647E-04
  0.72582714E-04  0.64838487E-04  0.56890722E-04  0.48826874E-04  0.40730498E-04
  0.32680717E-04  0.24751758E-04  0.17012556E-04  0.95264319E-05  0.23508329E-05
 -0.44628580E-05 -0.10869450E-04 -0.16830009E-04 -0.22311866E-04 -0.27288571E-04
 -0.31739788E-04 -0.35651150E-04 -0.39014065E-04 -0.41825484E-04 -0.44087629E-04
 -0.45807695E-04 -0.46997517E-04 -0.47673224E-04 -0.47854859E-04 -0.47566001E-04
 -0.46833362E-04 -0.45686385E-04 -0.44156839E-04 -0.42278407E-04 -0.40086291E-04
 -0.37616810E-04 -0.34907018E-04 -0.31994335E-04 -0.28916184E-04 -0.25709661E-04
 -0.22411210E-04 -0.19056329E-04 -0.15679296E-04 -0.12312922E-04 -0.89883216E-05
 -0.57347205E-05 -0.25792803E-05  0.45304533E-06  0.33396297E-05  0.60602653E-05
  0.85972303E-05  0.10935330E-04  0.13061915E-04  0.14966872E-04  0.16642600E-04
  0.18083957E-04  0.19288196E-04  0.20254872E-04  0.20985747E-04  0.21484666E-04
  0.21757430E-04  0.21811653E-04  0.21656611E-04  0.21303084E-04  0.20763188E-04
  0.20050209E-04  0.19178427E-04  0.18162947E-04  0.17019523E-04  0.15764388E-04
  0.14414087E-04  0.12985316E-04  0.11494759E-04  0.99589458E-05  0.83941045E-05
  0.68160306E-05  0.52399625E-05  0.36804691E-05  0.21513467E-05  0.66552776E-06
 -0.76499827E-06 -0.21292534E-05 -0.34173269E-05 -0.46204198E-05 -0.57308771E-05
 -0.67422091E-05 -0.76491014E-05 -0.84474135E-05 -0.91341676E-05 -0.97075276E-05
 -0.10166769E-04 -0.10512239E-04 -0.10745310E-04 -0.10868326E-04 -0.10884543E-04
 -0.10798059E-04 -0.10613748E-04 -0.10337182E-04 -0.99745546E-05 -0.95325986E-05
 -0.90185057E-05 -0.84398431E-05 -0.78044703E-05 -0.71204572E-05 -0.63960031E-05
 -0.56393580E-05 -0.48587463E-05 -0.40622938E-05 -0.32579585E-05 -0.24534652E-05
 -0.16562454E-05 -0.87338144E-06 -0.11155598E-06  0.62299266E-06  0.13245099E-05
  0.19877583E-05  0.26080452E-05  0.31812445E-05  0.37038127E-05  0.41727987E-05
  0.45858485E-05  0.49412041E-05  0.52376977E-05  0.54747398E-05  0.56523038E-05
  0.57709052E-05  0.58315775E-05  0.58358440E-05  0.57856862E-05  0.56835095E-05
  0.55321060E-05  0.53346162E-05  0.50944874E-05  0.48154325E-05  0.45013867E-05
  0.41564641E-05  0.37849151E-05  0.33910825E-05  0.29793598E-05  0.25541497E-05
  0.21198241E-05  0.16806863E-05  0.12409341E-05  0.80462620E-06  0.37565033E-06
 -0.42305783E-07 -0.44578067E-06 -0.83156248E-06 -0.11967093E-05 -0.15385664E-05
 -0.18547805E-05 -0.21433102E-05 -0.24024345E-05 -0.26307570E-05 -0.28272075E-05
 -0.29910411E-05 -0.31218335E-05 -0.32194747E-05 -0.32841589E-05 -0.33163734E-05
 -0.33168839E-05 -0.32867188E-05 -0.32271512E-05 -0.31396796E-05 -0.30260069E-05
 -0.28880185E-05 -0.27277592E-05 -0.25474103E-05 -0.23492649E-05 -0.21357041E-05
 -0.19091724E-05 -0.16721542E-05 -0.14271499E-05 -0.11766530E-05 -0.92312767E-06
 -0.66898804E-06 -0.41657766E-06 -0.16815085E-06  0.74144782E-07  0.30828427E-06
  0.53237966E-06  0.74469271E-06  0.94364581E-06  0.11278312E-05  0.12960184E-05
  0.14471596E-05  0.15803938E-05  0.16950484E-05  0.17906398E-05  0.18668717E-05
  0.19236323E-05  0.19609896E-05  0.19791852E-05  0.19786270E-05  0.19598807E-05
  0.19236596E-05  0.18708140E-05  0.18023194E-05  0.17192640E-05  0.16228357E-05
  0.15143081E-05  0.13950269E-05  0.12663956E-05  0.11298610E-05  0.98689902E-06
  0.83900083E-06  0.68765864E-06  0.53435246E-06  0.38053714E-06  0.22763003E-06
  0.76999335E-07 -0.70046782E-07 -0.21227017E-06 -0.34851184E-06 -0.47770006E-06
 -0.59885753E-06 -0.71110741E-06 -0.81367838E-06 -0.90590854E-06 -0.98724825E-06
 -0.10572619E-05 -0.11156287E-05 -0.11621420E-05 -0.11967083E-05 -0.12193450E-05
 -0.12301765E-05 -0.12294308E-05 -0.12174344E-05 -0.11946062E-05 -0.11614517E-05
 -0.11185559E-05 -0.10665758E-05 -0.10062325E-05 -0.93830306E-06 -0.86361188E-06
 -0.78302212E-06 -0.69742680E-06 -0.60774002E-06 -0.51488815E-06 -0.41980118E-06
 -0.32340429E-06 -0.22660965E-06 -0.13030859E-06 -0.35364132E-07  0.57395959E-07
  0.14718571E-06  0.23326687E-06  0.31495427E-06  0.39162056E-06  0.46270034E-06
  0.52769356E-06  0.58616835E-06  0.63776303E-06  0.68218757E-06  0.71922432E-06
  0.74872804E-06  0.77062535E-06  0.78491349E-06  0.79165856E-06  0.79099308E-06
  0.78311314E-06  0.76827497E-06  0.74679110E-06  0.71902612E-06  0.68539204E-06
  0.64634341E-06  0.60237214E-06  0.55400214E-06  0.50178380E-06  0.44628835E-06
  0.38810226E-06  0.32782151E-06  0.26604609E-06  0.20337442E-06  0.14039811E-06
  0.77696708E-07  0.15832903E-07 -0.44652180E-07 -0.10324327E-06 -0.15945496E-06
 -0.21283530E-06 -0.26296903E-06 -0.30948045E-06 -0.35203576E-06 -0.39034506E-06
 -0.42416389E-06 -0.45329428E-06 -0.47758541E-06 -0.49693384E-06 -0.51128325E-06
 -0.52062382E-06 -0.52499119E-06 -0.52446505E-06 -0.51916735E-06 -0.50926021E-06
 -0.49494346E-06 -0.47645198E-06 -0.45405274E-06 -0.42804163E-06 -0.39874012E-06
 -0.36649178E-06 -0.33165864E-06 -0.29461751E-06 -0.25575627E-06 -0.21547011E-06
 -0.17415780E-06 -0.13221802E-06 -0.90045830E-07 -0.48029143E-07 -0.65454494E-08
  0.34041347E-07  0.73383875E-07  0.11115403E-06  0.14704550E-06  0.18077595E-06
  0.21208907E-06  0.24075627E-06  0.26657804E-06  0.28938513E-06  0.30903938E-06
  0.32543419E-06  0.33849484E-06  0.34817835E-06  0.35447323E-06  0.35739879E-06
  0.35700434E-06  0.35336801E-06  0.34659543E-06  0.33681817E-06  0.32419194E-06
  0.30889470E-06  0.29112451E-06  0.27109735E-06  0.24904474E-06  0.22521135E-06
  0.19985249E-06  0.17323158E-06  0.14561763E-06  0.11728265E-06  0.88499209E-07
  0.59537907E-07  0.30665036E-07  0.21402608E-08 -0.25785560E-07 -0.52872440E-07
 -0.78893179E-07 -0.10363513E-06 -0.12690178E-06 -0.14851419E-06 -0.16831220E-06
 -0.18615545E-06 -0.20192427E-06 -0.21552024E-06 -0.22686665E-06 -0.23590874E-06
 -0.24261368E-06 -0.24697045E-06 -0.24898941E-06 -0.24870181E-06 -0.24615901E-06
 -0.24143167E-06 -0.23460860E-06 -0.22579569E-06 -0.21511451E-06 -0.20270094E-06
 -0.18870363E-06 -0.17328238E-06 -0.15660652E-06 -0.13885314E-06 -0.12020536E-06
 -0.10085055E-06 -0.80978585E-07 -0.60780041E-07 -0.40444512E-07 -0.20158908E-07
 -0.10583104E-09  0.19537970E-07  0.38603072E-07  0.56928742E-07  0.74364209E-07
  0.90769812E-07  0.10601802E-06  0.11999436E-06  0.13259811E-06  0.14374301E-06
  0.15335769E-06  0.16138602E-06  0.16778730E-06  0.17253633E-06  0.17562332E-06
  0.17705363E-06  0.17684749E-06  0.17503944E-06  0.17167782E-06  0.16682395E-06
  0.16055144E-06  0.15294518E-06  0.14410042E-06  0.13412169E-06  0.12312165E-06
  0.11121996E-06  0.98542053E-07  0.85217863E-07  0.71380614E-07  0.57165532E-07
  0.42708599E-07  0.28145318E-07  0.13609498E-07 -0.76790579E-09 -0.14859918E-07
 -0.28544607E-07 -0.41706076E-07 -0.54235394E-07 -0.66031434E-07 -0.77001635E-07
 -0.87062663E-07 -0.96140985E-07 -0.10417334E-06 -0.11110711E-06 -0.11690058E-06
 -0.12152312E-06 -0.12495524E-06 -0.12718854E-06 -0.12822561E-06 -0.12807974E-06
 -0.12677465E-06 -0.12434406E-06 -0.12083119E-06 -0.11628819E-06 -0.11077553E-06
 -0.10436127E-06 -0.97120307E-07 -0.89133605E-07 -0.80487316E-07 -0.71271929E-07
 -0.61581368E-07 -0.51512093E-07 -0.41162177E-07 -0.30630399E-07 -0.20015343E-07
 -0.94145171E-08  0.10765048E-08  0.11364904E-07  0.21361402E-07  0.30980992E-07
  0.40143633E-07  0.48774867E-07  0.56806395E-07  0.64176568E-07  0.70830828E-07
  0.76722063E-07  0.81810897E-07  0.86065899E-07  0.89463725E-07  0.91989180E-07
  0.93635203E-07  0.94402787E-07  0.94300824E-07  0.93345880E-07  0.91561909E-07
  0.88979905E-07  0.85637498E-07  0.81578494E-07  0.76852374E-07  0.71513744E-07
  0.65621757E-07  0.59239496E-07  0.52433341E-07  0.45272312E-07  0.37827403E-07
  0.30170908E-07  0.22375749E-07  0.14514809E-07  0.66602804E-08 -0.11169754E-08
 -0.87480379E-08 -0.16166514E-07 -0.23309090E-07 -0.30116046E-07 -0.36531730E-07
 -0.42504988E-07 -0.47989542E-07 -0.52944325E-07 -0.57333753E-07 -0.61127957E-07
 -0.64302947E-07 -0.66840728E-07 -0.68729356E-07 -0.69962942E-07 -0.70541601E-07
 -0.70471347E-07 -0.69763937E-07 -0.68436665E-07 -0.66512117E-07 -0.64017873E-07
 -0.60986172E-07 -0.57453550E-07 -0.53460431E-07 -0.49050700E-07 -0.44271252E-07
 -0.39171519E-07 -0.33802977E-07 -0.28218658E-07 -0.22472641E-07 -0.16619549E-07
 -0.10714052E-07 -0.48103709E-08  0.10381986E-08  0.67797514E-08  0.12364215E-07
  0.17743771E-07  0.22873243E-07  0.27710462E-07  0.32216594E-07  0.36356433E-07
  0.40098659E-07  0.43416050E-07  0.46285665E-07  0.48688976E-07  0.50611960E-07
  0.52045153E-07  0.52983661E-07  0.53427125E-07  0.53379652E-07  0.52849704E-07
  0.51849954E-07  0.50397095E-07  0.48511632E-07  0.46217635E-07  0.43542458E-07
  0.40516446E-07  0.37172612E-07  0.33546297E-07  0.29674814E-07  0.25597079E-07
  0.21353241E-07  0.16984295E-07  0.12531704E-07  0.80370164E-08  0.35414935E-08
 -0.91425853E-09 -0.52906423E-08 -0.95494089E-08 -0.13653980E-07 -0.17569750E-07
 -0.21264367E-07 -0.24707983E-07 -0.27873488E-07 -0.30736708E-07 -0.33276572E-07
 -0.35475259E-07 -0.37318301E-07 -0.38794662E-07 -0.39896784E-07 -0.40620600E-07
 -0.40965511E-07 -0.40934345E-07 -0.40533271E-07 -0.39771693E-07 -0.38662117E-07
 -0.37219987E-07 -0.35463501E-07 -0.33413407E-07 -0.31092773E-07 -0.28526748E-07
 -0.25742297E-07 -0.22767939E-07 -0.19633458E-07 -0.16369624E-07 -0.13007893E-07
 -0.95801200E-08 -0.61182644E-08 -0.26541000E-08  0.78106610E-09  0.41566685E-08
  0.74431466E-08  0.10612195E-07  0.13636999E-07  0.16492451E-07  0.19155353E-07
  0.21604595E-07  0.23821310E-07  0.25789016E-07  0.27493719E-07  0.28924010E-07
  0.30071123E-07  0.30928973E-07  0.31494176E-07  0.31766033E-07  0.31746497E-07
  0.31440117E-07  0.30853959E-07  0.29997501E-07  0.28882513E-07  0.27522921E-07
  0.25934643E-07  0.24135420E-07  0.22144630E-07  0.19983087E-07  0.17672833E-07
  0.15236924E-07  0.12699205E-07  0.10084084E-07  0.74163059E-08  0.47207253E-08
  0.20220793E-08 -0.65523132E-09 -0.32873574E-08 -0.58512070E-08 -0.83246424E-08
 -0.10686665E-07 -0.12917586E-07 -0.14999187E-07 -0.16914860E-07 -0.18649734E-07
 -0.20190783E-07 -0.21526916E-07 -0.22649050E-07 -0.23550159E-07 -0.24225313E-07
 -0.24671686E-07 -0.24888554E-07 -0.24877271E-07 -0.24641226E-07 -0.24185785E-07
 -0.23518210E-07 -0.22647572E-07 -0.21584639E-07 -0.20341756E-07 -0.18932714E-07
 -0.17372602E-07 -0.15677653E-07 -0.13865084E-07 -0.11952926E-07 -0.99598500E-08
 -0.79049891E-08 -0.58077621E-08 -0.36876935E-08 -0.15642369E-08  0.54339916E-09
  0.26164202E-08  0.46366090E-08  0.65864810E-08  0.84494317E-08  0.10209873E-07
  0.11853359E-07  0.13366699E-07  0.14738063E-07  0.15957061E-07  0.17014824E-07
  0.17904057E-07  0.18619086E-07  0.19155884E-07  0.19512087E-07  0.19686988E-07
  0.19681526E-07  0.19498248E-07  0.19141269E-07  0.18616211E-07  0.17930133E-07
  0.17091445E-07  0.16109818E-07  0.14996073E-07  0.13762077E-07  0.12420613E-07
  0.10985258E-07  0.94702478E-08  0.78903412E-08  0.62606789E-08  0.45966429E-08
  0.29137150E-08  0.12273356E-08 -0.44723391E-09 -0.20950463E-08 -0.37015985E-08
 -0.52529559E-08 -0.67358700E-08 -0.81378882E-08 -0.94474551E-08 -0.10654004E-07
 -0.11748038E-07 -0.12721204E-07 -0.13566347E-07 -0.14277562E-07 -0.14850232E-07
 -0.15281047E-07 -0.15568020E-07 -0.15710485E-07 -0.15709089E-07 -0.15565764E-07
 -0.15283695E-07 -0.14867274E-07 -0.14322044E-07 -0.13654635E-07 -0.12872690E-07
 -0.11984781E-07 -0.11000320E-07 -0.99294666E-08 -0.87830208E-08 -0.75723228E-08
 -0.63091411E-08 -0.50055618E-08 -0.36738756E-08 -0.23264646E-08 -0.97568981E-09
  0.36621974E-09  0.16872753E-08  0.29758328E-08  0.42206936E-08  0.54111985E-08
  0.65373175E-08  0.75897310E-08  0.85599046E-08  0.94401559E-08  0.10223712E-07
  0.10904759E-07  0.11478481E-07  0.11941093E-07  0.12289856E-07  0.12523097E-07
  0.12640200E-07  0.12641606E-07  0.12528790E-07  0.12304240E-07  0.11971416E-07
  0.11534708E-07  0.10999387E-07  0.10371544E-07  0.96580250E-08  0.88663607E-08
  0.80046887E-08  0.70816736E-08  0.61064218E-08  0.50883944E-08  0.40373172E-08
  0.29630902E-08  0.18756961E-08  0.78510960E-09 -0.29879217E-09 -0.13663173E-08
 -0.24080439E-08 -0.34149014E-08 -0.43782476E-08 -0.52899413E-08 -0.61424088E-08
 -0.69287050E-08 -0.76425683E-08 -0.82784676E-08 -0.88316436E-08 -0.92981416E-08
 -0.96748368E-08 -0.99594526E-08 -0.10150570E-07 -0.10247629E-07 -0.10250925E-07
 -0.10161593E-07 -0.99815892E-08 -0.97136614E-08 -0.93613153E-08 -0.89287736E-08
 -0.84209288E-08 -0.78432913E-08 -0.72019319E-08 -0.65034204E-08 -0.57547603E-08
 -0.49633206E-08 -0.41367648E-08 -0.32829785E-08 -0.24099960E-08 -0.15259255E-08
 -0.63887618E-09  0.24311556E-09  0.11121569E-08  0.19605683E-08  0.27809493E-08
  0.35662426E-08  0.43097925E-08  0.50054003E-08  0.56473745E-08  0.62305756E-08
  0.67504558E-08  0.72030927E-08  0.75852170E-08  0.78942339E-08  0.81282386E-08
  0.82860245E-08  0.83670864E-08  0.83716158E-08  0.83004915E-08  0.81552629E-08
  0.79381282E-08  0.76519071E-08  0.73000074E-08  0.68863878E-08  0.64155155E-08
 kinetic energy density (partial)
  0.26517834E+03  0.26504774E+03  0.26465631E+03  0.26400513E+03  0.26309603E+03
  0.26193152E+03  0.26051484E+03  0.25884991E+03  0.25694130E+03  0.25479425E+03
  0.25241463E+03  0.24980889E+03  0.24698405E+03  0.24394769E+03  0.24070788E+03
  0.23727316E+03  0.23365250E+03  0.22985529E+03  0.22589124E+03  0.22177041E+03
  0.21750311E+03  0.21309989E+03  0.20857150E+03  0.20392882E+03  0.19918286E+03
  0.19434468E+03  0.18942536E+03  0.18443598E+03  0.17938755E+03  0.17429101E+03
  0.16915714E+03  0.16399658E+03  0.15881977E+03  0.15363692E+03  0.14845796E+03
  0.14329257E+03  0.13815009E+03  0.13303954E+03  0.12796957E+03  0.12294847E+03
  0.11798413E+03  0.11308402E+03  0.10825520E+03  0.10350431E+03  0.98837527E+02
  0.94260598E+02  0.89778818E+02  0.85397029E+02  0.81119623E+02  0.76950540E+02
  0.72893276E+02  0.68950886E+02  0.65125990E+02  0.61420782E+02  0.57837042E+02
  0.54376143E+02  0.51039066E+02  0.47826414E+02  0.44738424E+02  0.41774981E+02
  0.38935639E+02  0.36219633E+02  0.33625897E+02  0.31153082E+02  0.28799574E+02
  0.26563511E+02  0.24442802E+02  0.22435145E+02  0.20538046E+02  0.18748836E+02
  0.17064687E+02  0.15482636E+02  0.13999594E+02  0.12612369E+02  0.11317681E+02
  0.10112176E+02  0.89924451E+01  0.79550358E+01  0.69964683E+01  0.61132484E+01
  0.53018810E+01  0.45588821E+01  0.38807900E+01  0.32641768E+01  0.27056581E+01
  0.22019025E+01  0.17496400E+01  0.13456705E+01  0.98687019E+00  0.67019847E+00
  0.39270362E+00  0.15152776E+00 -0.56088733E-01 -0.23280355E+00 -0.38116940E+00
 -0.50363155E+00 -0.60252595E+00 -0.68007801E+00 -0.73840179E+00 -0.77949978E+00
 -0.80526319E+00 -0.81747255E+00 -0.81779892E+00 -0.80780536E+00 -0.78894880E+00
 -0.76258223E+00 -0.72995724E+00 -0.69222676E+00 -0.65044810E+00 -0.60558615E+00
 -0.55851682E+00 -0.51003058E+00 -0.46083619E+00 -0.41156449E+00 -0.36277228E+00
 -0.31494628E+00 -0.26850708E+00 -0.22381316E+00 -0.18116485E+00 -0.14080831E+00
 -0.10293941E+00 -0.67707652E-01 -0.35219865E-01 -0.55439723E-02  0.21287447E-01
  0.45273665E-01  0.66442443E-01  0.84846795E-01  0.10056189E+00  0.11368210E+00
  0.12431819E+00  0.13259467E+00  0.13864726E+00  0.14262062E+00  0.14466607E+00
  0.14493964E+00  0.14360017E+00  0.14080758E+00  0.13672132E+00  0.13149899E+00
  0.12529502E+00  0.11825958E+00  0.11053760E+00  0.10226789E+00  0.93582478E-01
  0.84605925E-01  0.75454906E-01  0.66237804E-01  0.57054441E-01  0.47995900E-01
  0.39144437E-01  0.30573471E-01  0.22347659E-01  0.14523027E-01  0.71471722E-02
  0.25952019E-03 -0.61083749E-02 -0.11932482E-01 -0.17195911E-01 -0.21888500E-01
 -0.26006374E-01 -0.29551493E-01 -0.32531175E-01 -0.34957619E-01 -0.36847417E-01
 -0.38221065E-01 -0.39102487E-01 -0.39518552E-01 -0.39498612E-01 -0.39074047E-01
 -0.38277833E-01 -0.37144119E-01 -0.35707835E-01 -0.34004309E-01 -0.32068924E-01
 -0.29936786E-01 -0.27642421E-01 -0.25219508E-01 -0.22700622E-01 -0.20117020E-01
 -0.17498443E-01 -0.14872950E-01 -0.12266776E-01 -0.97042164E-02 -0.72075376E-02
 -0.47969078E-02 -0.24903539E-02 -0.30373867E-03  0.17492412E-02  0.36570383E-02
  0.54102199E-02  0.70014166E-02  0.84252574E-02  0.96782901E-02  0.10758891E-01
  0.11667163E-01  0.12404829E-01  0.12975110E-01  0.13382605E-01  0.13633166E-01
  0.13733763E-01  0.13692356E-01  0.13517759E-01  0.13219510E-01  0.12807739E-01
  0.12293043E-01  0.11686359E-01  0.10998844E-01  0.10241762E-01  0.94263766E-02
  0.85638441E-02  0.76651222E-02  0.67408801E-02  0.58014185E-02  0.48565966E-02
  0.39157683E-02  0.29877251E-02  0.20806482E-02  0.12020687E-02  0.35883475E-03
 -0.44291196E-03 -0.11977534E-02 -0.19010043E-02 -0.25487147E-02 -0.31376657E-02
 -0.36653590E-02 -0.41300004E-02 -0.45304787E-02 -0.48663387E-02 -0.51377507E-02
 -0.53454756E-02 -0.54908267E-02 -0.55756292E-02 -0.56021761E-02 -0.55731837E-02
 -0.54917446E-02 -0.53612801E-02 -0.51854928E-02 -0.49683179E-02 -0.47138760E-02
 -0.44264266E-02 -0.41103216E-02 -0.37699622E-02 -0.34097557E-02 -0.30340756E-02
 -0.26472236E-02 -0.22533939E-02 -0.18566409E-02 -0.14608488E-02 -0.10697050E-02
 -0.68667642E-03 -0.31498815E-03  0.42393580E-04  0.38277608E-03  0.70375147E-03
  0.10032050E-02  0.12793201E-02  0.15305811E-02  0.17557725E-02  0.19539761E-02
  0.21245652E-02  0.22671971E-02  0.23818028E-02  0.24685749E-02  0.25279541E-02
  0.25606138E-02  0.25674433E-02  0.25495298E-02  0.25081401E-02  0.24447004E-02
  0.23607769E-02  0.22580547E-02  0.21383179E-02  0.20034283E-02  0.18553061E-02
  0.16959089E-02  0.15272131E-02  0.13511949E-02  0.11698124E-02  0.98498891E-03
  0.79859663E-03  0.61244230E-03  0.42825350E-03  0.24766640E-03  0.72214910E-04
 -0.96678906E-04 -0.25771293E-03 -0.40971174E-03 -0.55163188E-03 -0.68256582E-03
 -0.80174448E-03 -0.90853842E-03 -0.10024578E-02 -0.10831509E-02 -0.11504019E-02
 -0.12041270E-02 -0.12443698E-02 -0.12712961E-02 -0.12851869E-02 -0.12864316E-02
 -0.12755199E-02 -0.12530335E-02 -0.12196371E-02 -0.11760690E-02 -0.11231317E-02
 -0.10616820E-02 -0.99262099E-03 -0.91688442E-03 -0.83543270E-03 -0.74924131E-03
 -0.65929144E-03 -0.56656084E-03 -0.47201516E-03 -0.37659968E-03 -0.28123155E-03
 -0.18679262E-03 -0.94122741E-04 -0.40138574E-05  0.82795374E-04  0.16562423E-03
  0.24385388E-03  0.31693066E-03  0.38436864E-03  0.44575146E-03  0.50073353E-03
  0.54904051E-03  0.59046914E-03  0.62488649E-03  0.65222857E-03  0.67249836E-03
  0.68576334E-03  0.69215256E-03  0.69185323E-03  0.68510690E-03  0.67220536E-03
  0.65348619E-03  0.62932803E-03  0.60014576E-03  0.56638542E-03  0.52851908E-03
  0.48703967E-03  0.44245581E-03  0.39528663E-03  0.34605672E-03  0.29529125E-03
  0.24351115E-03  0.19122860E-03  0.13894269E-03  0.87135380E-04  0.36267723E-04
 -0.13223556E-04 -0.60929178E-04 -0.10647006E-03 -0.14949971E-03 -0.18970625E-03
 -0.22681405E-03 -0.26058498E-03 -0.29081933E-03 -0.31735628E-03 -0.34007408E-03
 -0.35888982E-03 -0.37375891E-03 -0.38467416E-03 -0.39166469E-03 -0.39479437E-03
 -0.39416018E-03 -0.38989020E-03 -0.38214146E-03 -0.37109756E-03 -0.35696615E-03
 -0.33997631E-03 -0.32037574E-03 -0.29842795E-03 -0.27440938E-03 -0.24860646E-03
 -0.22131276E-03 -0.19282606E-03 -0.16344556E-03 -0.13346912E-03 -0.10319063E-03
 -0.72897497E-04 -0.42868215E-04 -0.13370173E-04  0.15342425E-04  0.43030434E-04
  0.69471460E-04  0.94461341E-04  0.11781542E-03  0.13936962E-03  0.15898126E-03
  0.17652971E-03  0.19191680E-03  0.20506699E-03  0.21592739E-03  0.22446754E-03
  0.23067899E-03  0.23457472E-03  0.23618836E-03  0.23557331E-03  0.23280158E-03
  0.22796268E-03  0.22116222E-03  0.21252048E-03  0.20217095E-03  0.19025865E-03
  0.17693854E-03  0.16237382E-03  0.14673420E-03  0.13019417E-03  0.11293132E-03
  0.95124629E-04  0.76952811E-04  0.58592713E-04  0.40217773E-04  0.21996562E-04
  0.40913993E-05 -0.13342929E-04 -0.30160349E-04 -0.46224562E-04 -0.61410000E-04
 -0.75602643E-04 -0.88700725E-04 -0.10061530E-03 -0.11127068E-03 -0.12060474E-03
 -0.12856909E-03 -0.13512916E-03 -0.14026407E-03 -0.14396646E-03 -0.14624220E-03
 -0.14710992E-03 -0.14660053E-03 -0.14475658E-03 -0.14163156E-03 -0.13728912E-03
 -0.13180220E-03 -0.12525214E-03 -0.11772768E-03 -0.10932402E-03 -0.10014171E-03
 -0.90285663E-04 -0.79864050E-04 -0.68987254E-04 -0.57766811E-04 -0.46314376E-04
 -0.34740711E-04 -0.23154711E-04 -0.11662476E-04 -0.36642554E-06  0.10635524E-04
  0.21250723E-04  0.31392480E-04  0.40980692E-04  0.49942384E-04  0.58212185E-04
  0.65732712E-04  0.72454881E-04  0.78338129E-04  0.83350559E-04  0.87468998E-04
  0.90678981E-04  0.92974656E-04  0.94358611E-04  0.94841634E-04  0.94442401E-04
  0.93187110E-04  0.91109047E-04  0.88248105E-04  0.84650257E-04  0.80366987E-04
  0.75454681E-04  0.69974000E-04  0.63989223E-04  0.57567573E-04  0.50778542E-04
  0.43693205E-04  0.36383538E-04  0.28921752E-04  0.21379631E-04  0.13827899E-04
  0.63356069E-05 -0.10304439E-05 -0.82062519E-05 -0.15131121E-04 -0.21748124E-04
 -0.28004527E-04 -0.33852155E-04 -0.39247721E-04 -0.44153088E-04 -0.48535495E-04
 -0.52367713E-04 -0.55628163E-04 -0.58300966E-04 -0.60375951E-04 -0.61848611E-04
 -0.62720000E-04 -0.62996595E-04 -0.62690106E-04 -0.61817242E-04 -0.60399442E-04
 -0.58462572E-04 -0.56036580E-04 -0.53155134E-04 -0.49855226E-04 -0.46176765E-04
 -0.42162143E-04 -0.37855798E-04 -0.33303763E-04 -0.28553214E-04 -0.23652022E-04
 -0.18648298E-04 -0.13589961E-04 -0.85243071E-05 -0.34975978E-05  0.14453308E-05
  0.62614403E-05  0.10909836E-04  0.15352084E-04  0.19552503E-04  0.23478422E-04
  0.27100404E-04  0.30392437E-04  0.33332092E-04  0.35900639E-04  0.38083137E-04
  0.39868478E-04  0.41249400E-04  0.42222467E-04  0.42788015E-04  0.42950056E-04
  0.42716168E-04  0.42097342E-04  0.41107807E-04  0.39764826E-04  0.38088479E-04
  0.36101413E-04  0.33828586E-04  0.31296985E-04  0.28535342E-04  0.25573836E-04
  0.22443786E-04  0.19177348E-04  0.15807203E-04  0.12366254E-04  0.88873235E-05
  0.54028575E-05  0.19446451E-05 -0.14564556E-05 -0.47707751E-05 -0.79700735E-05
 -0.11027764E-04 -0.13919117E-04 -0.16621440E-04 -0.19114244E-04 -0.21379375E-04
 -0.23401126E-04 -0.25166335E-04 -0.26664437E-04 -0.27887512E-04 -0.28830299E-04
 -0.29490180E-04 -0.29867157E-04 -0.29963789E-04 -0.29785117E-04 -0.29338566E-04
 -0.28633827E-04 -0.27682725E-04 -0.26499063E-04 -0.25098458E-04 -0.23498162E-04
 -0.21716873E-04 -0.19774538E-04 -0.17692140E-04 -0.15491496E-04 -0.13195040E-04
 -0.10825604E-04 -0.84062104E-05 -0.59598570E-05 -0.35093109E-05 -0.10769086E-05
  0.13156370E-05  0.36474186E-05  0.58985069E-05  0.80501099E-05  0.10084719E-04
  0.11986240E-04  0.13740111E-04  0.15333399E-04  0.16754888E-04  0.17995141E-04
  0.19046551E-04  0.19903371E-04  0.20561733E-04  0.21019637E-04  0.21276939E-04
  0.21335311E-04  0.21198190E-04  0.20870713E-04  0.20359634E-04  0.19673236E-04
  0.18821219E-04  0.17814593E-04  0.16665542E-04  0.15387303E-04  0.13994016E-04
  0.12500583E-04  0.10922521E-04  0.92758050E-05  0.75767182E-05  0.58416991E-05
  0.40871898E-05  0.23294877E-05  0.58460191E-06 -0.11318856E-05 -0.28049521E-05
 -0.44202584E-05 -0.59642650E-05 -0.74243385E-05 -0.87888479E-05 -0.10047250E-04
 -0.11190164E-04 -0.12209432E-04 -0.13098171E-04 -0.13850809E-04 -0.14463113E-04
 -0.14932197E-04 -0.15256524E-04 -0.15435898E-04 -0.15471434E-04 -0.15365527E-04
 -0.15121807E-04 -0.14745078E-04 -0.14241259E-04 -0.13617304E-04 -0.12881124E-04
 -0.12041495E-04 -0.11107964E-04 -0.10090749E-04 -0.90006307E-05 -0.78488516E-05
 -0.66470001E-05 -0.54069021E-05 -0.41405102E-05 -0.28597927E-05 -0.15766263E-05
 -0.30269039E-06  0.95063441E-06  0.21723633E-05  0.33519992E-05  0.44796177E-05
  0.55459468E-05  0.65424380E-05  0.74613301E-05  0.82957048E-05  0.90395337E-05
  0.96877165E-05  0.10236110E-04  0.10681547E-04  0.11021849E-04  0.11255827E-04
  0.11383275E-04  0.11404953E-04  0.11322561E-04  0.11138712E-04  0.10856888E-04
  0.10481394E-04  0.10017304E-04  0.94704030E-05  0.88471203E-05  0.81544616E-05
  0.73999348E-05  0.65914737E-05  0.57373587E-05  0.48461365E-05  0.39265379E-05
  0.29873962E-05  0.20375657E-05  0.10858415E-05  0.14088123E-06 -0.78887021E-06
 -0.16952534E-05 -0.25704626E-05 -0.34071103E-05 -0.41982860E-05 -0.49376105E-05
 -0.56192839E-05 -0.62381280E-05 -0.67896220E-05 -0.72699320E-05 -0.76759333E-05
 -0.80052270E-05 -0.82561481E-05 -0.84277687E-05 -0.85198934E-05 -0.85330482E-05
 -0.84684638E-05 -0.83280522E-05 -0.81143777E-05 -0.78306231E-05 -0.74805499E-05
 -0.70684551E-05 -0.65991228E-05 -0.60777734E-05 -0.55100085E-05 -0.49017547E-05
 -0.42592041E-05 -0.35887545E-05 -0.28969477E-05 -0.21904088E-05 -0.14757845E-05
 -0.75968330E-06 -0.48616281E-07  0.65105975E-06  0.13331970E-05  0.19919088E-05
  0.26216178E-05  0.32171017E-05  0.37735338E-05  0.42865205E-05  0.47521333E-05
  0.51669366E-05  0.55280106E-05  0.58329689E-05  0.60799716E-05  0.62677322E-05
  0.63955209E-05  0.64631615E-05  0.64710241E-05  0.64200126E-05  0.63115481E-05
  0.61475478E-05  0.59303989E-05  0.56629303E-05  0.53483793E-05  0.49903563E-05
  0.45928057E-05  0.41599654E-05  0.36963233E-05  0.32065737E-05  0.26955708E-05
  0.21682828E-05  0.16297452E-05  0.10850144E-05  0.53912192E-06 -0.29709744E-08
 -0.53641641E-06 -0.10565220E-05 -0.15587906E-05 -0.20389576E-05 -0.24930260E-05
 -0.29172979E-05 -0.33084029E-05 -0.36633238E-05 -0.39794179E-05 -0.42544347E-05
 -0.44865304E-05 -0.46742779E-05 -0.48166729E-05 -0.49131369E-05 -0.49635150E-05
 -0.49680712E-05 -0.49274791E-05 -0.48428098E-05 -0.47155156E-05 -0.45474114E-05
 -0.43406524E-05 -0.40977095E-05 -0.38213420E-05 -0.35145685E-05 -0.31806354E-05
 -0.28229846E-05 -0.24452186E-05 -0.20510666E-05 -0.16443480E-05 -0.12289372E-05
 -0.80872774E-06 -0.38759664E-06  0.30630012E-07  0.44221088E-06  0.84352177E-06
  0.12310865E-05  0.16016060E-05  0.19519853E-05  0.22793584E-05  0.25811105E-05
  0.28548978E-05  0.30986647E-05  0.33106576E-05  0.34894364E-05  0.36338828E-05
  0.37432053E-05  0.38169415E-05  0.38549576E-05  0.38574440E-05  0.38249095E-05
  0.37581713E-05  0.36583437E-05  0.35268227E-05  0.33652703E-05  0.31755945E-05
  0.29599291E-05  0.27206112E-05  0.24601566E-05  0.21812347E-05  0.18866424E-05
  0.15792766E-05  0.12621072E-05  0.93814835E-06  0.61043162E-06  0.28197775E-06
 -0.44230164E-07 -0.36527302E-06 -0.67832113E-06 -0.98065838E-06 -0.12697050E-05
 -0.15430390E-05 -0.17984155E-05 -0.20337845E-05 -0.22473063E-05 -0.24373656E-05
 -0.26025819E-05 -0.27418195E-05 -0.28541935E-05 -0.29390745E-05 -0.29960902E-05
 -0.30251257E-05 -0.30263202E-05 -0.30000624E-05 -0.29469832E-05 -0.28679470E-05
 -0.27640398E-05 -0.26365571E-05 -0.24869884E-05 -0.23170018E-05 -0.21284256E-05
 -0.19232303E-05 -0.17035083E-05 -0.14714535E-05 -0.12293400E-05 -0.97950066E-06
 -0.72430501E-06 -0.46613748E-06 -0.20737568E-06  0.49630920E-07  0.30258179E-06
  0.54924538E-06  0.78747825E-06  0.10152432E-05  0.12306260E-05  0.14318513E-05
  0.16172960E-05  0.17855026E-05  0.19351893E-05  0.20652595E-05  0.21748090E-05
  0.22631315E-05  0.23297221E-05  0.23742792E-05  0.23967045E-05  0.23971006E-05
  0.23757678E-05  0.23331985E-05  0.22700701E-05  0.21872362E-05  0.20857166E-05
  0.19666860E-05  0.18314610E-05  0.16814863E-05  0.15183203E-05  0.13436189E-05
  0.11591198E-05  0.96662530E-06  0.76798541E-06  0.56508049E-06  0.35980381E-06
  0.15404438E-06 -0.50330046E-07 -0.25148954E-06 -0.44765793E-06 -0.63712816E-06
 -0.81827666E-06 -0.98957691E-06 -0.11496119E-05 -0.12970853E-05 -0.14308318E-05
 -0.15498256E-05 -0.16531878E-05 -0.17401925E-05 -0.18102712E-05 -0.18630158E-05
 -0.18981802E-05 -0.19156803E-05 -0.19155928E-05 -0.18981519E-05 -0.18637455E-05
 -0.18129096E-05 -0.17463215E-05 -0.16647917E-05 -0.15692548E-05 -0.14607597E-05
 -0.13404583E-05 -0.12095942E-05 -0.10694897E-05 -0.92153329E-06 -0.76716617E-06
 -0.60786844E-06 -0.44514532E-06 -0.28051331E-06 -0.11548627E-06  0.48438138E-07
  0.20979174E-06  0.36714870E-06  0.51913787E-06  0.66445437E-06  0.80187053E-06
  0.93024595E-06  0.10485366E-05  0.11558032E-05  0.12512178E-05  0.13340706E-05
  0.14037741E-05  0.14598672E-05  0.15020176E-05  0.15300231E-05  0.15438120E-05
  0.15434418E-05  0.15290971E-05  0.15010862E-05  0.14598371E-05  0.14058917E-05
  0.13398996E-05  0.12626110E-05  0.11748686E-05  0.10775985E-05  0.97180132E-06
  0.85854185E-06  0.73893881E-06  0.61415399E-06  0.48538129E-06  0.35383551E-06
  0.22074118E-06  0.87321339E-07 -0.45213432E-07 -0.17567578E-06 -0.30291199E-06
 -0.42581197E-06 -0.54331871E-06 -0.65443712E-06 -0.75824227E-06 -0.85388684E-06
 -0.94060774E-06 -0.10177320E-05 -0.10846817E-05 -0.11409780E-05 -0.11862441E-05
 -0.12202076E-05 -0.12427015E-05 -0.12536644E-05 -0.12531398E-05 -0.12412744E-05
 -0.12183154E-05 -0.11846073E-05 -0.11405871E-05 -0.10867799E-05 -0.10237924E-05
 -0.95230691E-06 -0.87307399E-06 -0.78690499E-06 -0.69466394E-06 -0.59725911E-06
 -0.49563427E-06 -0.39075981E-06 -0.28362356E-06 -0.17522176E-06 -0.66549951E-07
  0.41406024E-07  0.14767875E-06  0.25132777E-06  0.35144771E-06  0.44717604E-06
  0.53770031E-06  0.62226489E-06  0.70017708E-06  0.77081262E-06  0.83362046E-06
  0.88812687E-06  0.93393876E-06  0.97074627E-06  0.99832457E-06  0.10165349E-05
  0.10253246E-05  0.10247268E-05  0.10148591E-05  0.99592120E-06  0.96819241E-06
  0.93202807E-06  0.88785545E-06  0.83616904E-06  0.77752531E-06  0.71253692E-06
 atomic pseudo charge-density
  0.70000000E+01  0.69862810E+01  0.69452920E+01  0.68775310E+01  0.67838151E+01
  0.66652599E+01  0.65232534E+01  0.63594235E+01  0.61756017E+01  0.59737832E+01
  0.57560860E+01  0.55247096E+01  0.52818942E+01  0.50298831E+01  0.47708873E+01
  0.45070544E+01  0.42404408E+01  0.39729900E+01  0.37065135E+01  0.34426782E+01
  0.31829958E+01  0.29288186E+01  0.26813362E+01  0.24415778E+01  0.22104148E+01
  0.19885675E+01  0.17766119E+01  0.15749888E+01  0.13840138E+01  0.12038867E+01
  0.10347031E+01  0.87646431E+00  0.72908807E+00  0.59241876E+00  0.46623710E+00
  0.35026945E+00  0.24419642E+00  0.14766099E+00  0.60275910E-01 -0.18369528E-01
 -0.88703318E-01 -0.15116522E+00 -0.20620183E+00 -0.25426219E+00 -0.29579396E+00
 -0.33124011E+00 -0.36103599E+00 -0.38560695E+00 -0.40536625E+00 -0.42071342E+00
 -0.43203284E+00 -0.43969274E+00 -0.44404435E+00 -0.44542139E+00 -0.44413967E+00
 -0.44049700E+00 -0.43477308E+00 -0.42722976E+00 -0.41811120E+00 -0.40764431E+00
 -0.39603916E+00 -0.38348950E+00 -0.37017338E+00 -0.35625372E+00 -0.34187901E+00
 -0.32718399E+00 -0.31229033E+00 -0.29730736E+00 -0.28233277E+00 -0.26745332E+00
 -0.25274551E+00 -0.23827634E+00 -0.22410386E+00 -0.21027793E+00 -0.19684077E+00
 -0.18382760E+00 -0.17126719E+00 -0.15918242E+00 -0.14759083E+00 -0.13650505E+00
 -0.12593335E+00 -0.11588001E+00 -0.10634579E+00 -0.97328276E-01 -0.88822273E-01
 -0.80820137E-01 -0.73312086E-01 -0.66286495E-01 -0.59730166E-01 -0.53628578E-01
 -0.47966117E-01 -0.42726284E-01 -0.37891890E-01 -0.33445226E-01 -0.29368227E-01
 -0.25642614E-01 -0.22250021E-01 -0.19172112E-01 -0.16390685E-01 -0.13887762E-01
 -0.11645670E-01 -0.96471114E-02 -0.78752229E-02 -0.63136297E-02 -0.49464881E-02
 -0.37585216E-02 -0.27350508E-02 -0.18620161E-02 -0.11259951E-02 -0.51421444E-03
 -0.14557329E-04  0.38443398E-03  0.69355910E-03  0.92296415E-03  0.10821495E-02
  0.11799803E-02  0.12246996E-02  0.12239432E-02  0.11847573E-02  0.11136165E-02
  0.10164442E-02  0.89863351E-03  0.76506947E-03  0.62015171E-03  0.46781768E-03
  0.31156638E-03  0.15448213E-03 -0.74145196E-06 -0.15177766E-03 -0.29664296E-03
 -0.43367367E-03 -0.56150287E-03 -0.67903791E-03 -0.78543836E-03 -0.88009461E-03
 -0.96260709E-03 -0.10327663E-02 -0.10905334E-02 -0.11360218E-02 -0.11694794E-02
 -0.11912720E-02 -0.12018670E-02 -0.12018181E-02 -0.11917519E-02 -0.11723535E-02
 -0.11443548E-02 -0.11085225E-02 -0.10656473E-02 -0.10165343E-02 -0.96199376E-03
 -0.90283267E-03 -0.83984758E-03 -0.77381774E-03 -0.70549922E-03 -0.63561961E-03
 -0.56487360E-03 -0.49391899E-03 -0.42337353E-03 -0.35381224E-03 -0.28576537E-03
 -0.21971683E-03 -0.15610317E-03 -0.95313012E-04 -0.37686929E-04  0.16482298E-04
  0.66949029E-04  0.11351379E-03  0.15602200E-03  0.19436239E-03  0.22846524E-03
  0.25830037E-03  0.28387491E-03  0.30523102E-03  0.32244337E-03  0.33561662E-03
  0.34488273E-03  0.35039831E-03  0.35234188E-03  0.35091116E-03  0.34632035E-03
  0.33879745E-03  0.32858165E-03  0.31592076E-03  0.30106873E-03  0.28428327E-03
  0.26582357E-03  0.24594815E-03  0.22491280E-03  0.20296869E-03  0.18036064E-03
  0.15732545E-03  0.13409045E-03  0.11087223E-03  0.87875388E-04  0.65291606E-04
  0.43298744E-04  0.22060151E-04  0.17241060E-05 -0.17576595E-04 -0.35724908E-04
 -0.52619677E-04 -0.68175640E-04 -0.82323310E-04 -0.95008740E-04 -0.10619318E-03
 -0.11585263E-03 -0.12397731E-03 -0.13057101E-03 -0.13565044E-03 -0.13924440E-03
 -0.14139302E-03 -0.14214683E-03 -0.14156588E-03 -0.13971879E-03 -0.13668175E-03
 -0.13253756E-03 -0.12737466E-03 -0.12128608E-03 -0.11436851E-03 -0.10672129E-03
 -0.98445506E-04 -0.89643049E-04 -0.80415734E-04 -0.70864461E-04 -0.61088417E-04
 -0.51184325E-04 -0.41245744E-04 -0.31362431E-04 -0.21619754E-04 -0.12098167E-04
 -0.28727528E-05  0.59871823E-05  0.14418440E-04  0.22364203E-04  0.29774247E-04
  0.36605083E-04  0.42820049E-04  0.48389334E-04  0.53289949E-04  0.57505641E-04
  0.61026763E-04  0.63850081E-04  0.65978553E-04  0.67421050E-04  0.68192053E-04
  0.68311304E-04  0.67803436E-04  0.66697573E-04  0.65026908E-04  0.62828265E-04
  0.60141646E-04  0.57009773E-04  0.53477615E-04  0.49591927E-04  0.45400780E-04
  0.40953104E-04  0.36298238E-04  0.31485494E-04  0.26563738E-04  0.21580984E-04
  0.16584021E-04  0.11618051E-04  0.67263623E-05  0.19500265E-05 -0.26723749E-05
 -0.71049928E-05 -0.11314922E-04 -0.15272380E-04 -0.18950852E-04 -0.22327210E-04
 -0.25381789E-04 -0.28098437E-04 -0.30464539E-04 -0.32470996E-04 -0.34112193E-04
 -0.35385921E-04 -0.36293286E-04 -0.36838587E-04 -0.37029169E-04 -0.36875263E-04
 -0.36389798E-04 -0.35588198E-04 -0.34488173E-04 -0.33109481E-04 -0.31473700E-04
 -0.29603971E-04 -0.27524755E-04 -0.25261572E-04 -0.22840748E-04 -0.20289158E-04
 -0.17633978E-04 -0.14902431E-04 -0.12121559E-04 -0.93179813E-05 -0.65176838E-05
 -0.37458074E-05 -0.10264557E-05  0.16174839E-05  0.41645033E-05  0.65946194E-05
  0.88895030E-05  0.11032589E-04  0.13009168E-04  0.14806460E-04  0.16413669E-04
  0.17822015E-04  0.19024758E-04  0.20017190E-04  0.20796619E-04  0.21362335E-04
  0.21715555E-04  0.21859357E-04  0.21798601E-04  0.21539831E-04  0.21091171E-04
  0.20462207E-04  0.19663862E-04  0.18708259E-04  0.17608580E-04  0.16378921E-04
  0.15034142E-04  0.13589712E-04  0.12061556E-04  0.10465902E-04  0.88191265E-05
  0.71376094E-05  0.54375847E-05  0.37350027E-05  0.20453958E-05  0.38375194E-06
 -0.12356031E-05 -0.27991156E-05 -0.42941029E-05 -0.57088429E-05 -0.70326522E-05
 -0.82559537E-05 -0.93703320E-05 -0.10368577E-04 -0.11244718E-04 -0.11994041E-04
 -0.12613100E-04 -0.13099715E-04 -0.13452955E-04 -0.13673117E-04 -0.13761691E-04
 -0.13721313E-04 -0.13555717E-04 -0.13269667E-04 -0.12868894E-04 -0.12360017E-04
 -0.11750460E-04 -0.11048368E-04 -0.10262516E-04 -0.94022094E-05 -0.84771951E-05
 -0.74975569E-05 -0.64736197E-05 -0.54158499E-05 -0.43347587E-05 -0.32408061E-05
 -0.21443088E-05 -0.10553509E-05  0.16300755E-07  0.10612768E-05  0.20706794E-05
  0.30361511E-05  0.39499366E-05  0.48049382E-05  0.55947634E-05  0.63137658E-05
  0.69570777E-05  0.75206358E-05  0.80011981E-05  0.83963540E-05  0.87045262E-05
  0.89249650E-05  0.90577361E-05  0.91037004E-05  0.90644878E-05  0.89424647E-05
  0.87406953E-05  0.84628977E-05  0.81133956E-05  0.76970648E-05  0.72192768E-05
  0.66858387E-05  0.61029309E-05  0.54770427E-05  0.48149063E-05  0.41234310E-05
  0.34096359E-05  0.26805847E-05  0.19433201E-05  0.12048012E-05  0.47184144E-06
 -0.24894896E-06 -0.95121893E-06 -0.16289282E-05 -0.22763950E-05 -0.28883401E-05
 -0.34599253E-05 -0.39867881E-05 -0.44650704E-05 -0.48914429E-05 -0.52631236E-05
 -0.55778912E-05 -0.58340932E-05 -0.60306485E-05 -0.61670450E-05 -0.62433318E-05
 -0.62601072E-05 -0.62185008E-05 -0.61201527E-05 -0.59671870E-05 -0.57621828E-05
 -0.55081405E-05 -0.52084461E-05 -0.48668321E-05 -0.44873361E-05 -0.40742578E-05
 -0.36321142E-05 -0.31655941E-05 -0.26795117E-05 -0.21787600E-05 -0.16682650E-05
 -0.11529395E-05 -0.63763891E-06 -0.12711832E-06  0.37400920E-06  0.86131158E-06
  0.13305745E-05  0.17778356E-05  0.21994152E-05  0.25919446E-05  0.29523901E-05
  0.32780743E-05  0.35666934E-05  0.38163304E-05  0.40254654E-05  0.41929810E-05
  0.43181649E-05  0.44007084E-05  0.44407006E-05  0.44386207E-05  0.43953249E-05
  0.43120319E-05  0.41903043E-05  0.40320274E-05  0.38393861E-05  0.36148386E-05
  0.33610887E-05  0.30810563E-05  0.27778464E-05  0.24547174E-05  0.21150475E-05
  0.17623023E-05  0.14000008E-05  0.10316825E-05  0.66087401E-06  0.29105748E-06
 -0.74360727E-07 -0.43207984E-06 -0.77893294E-06 -0.11119135E-05 -0.14281999E-05
 -0.17251779E-05 -0.20004607E-05 -0.22519068E-05 -0.24776348E-05 -0.26760357E-05
 -0.28457831E-05 -0.29858397E-05 -0.30954618E-05 -0.31742002E-05 -0.32218996E-05
 -0.32386939E-05 -0.32250000E-05 -0.31815089E-05 -0.31091738E-05 -0.30091973E-05
 -0.28830151E-05 -0.27322787E-05 -0.25588368E-05 -0.23647138E-05 -0.21520889E-05
 -0.19232725E-05 -0.16806831E-05 -0.14268227E-05 -0.11642527E-05 -0.89556863E-06
 -0.62337623E-06 -0.35026688E-06 -0.78794148E-07  0.18854912E-06  0.44935269E-06
  0.70130970E-06  0.94223608E-06  0.11700885E-05  0.13829809E-05  0.15791989E-05
  0.17572126E-05  0.19156876E-05  0.20534941E-05  0.21697130E-05  0.22636418E-05
  0.23347962E-05  0.23829118E-05  0.24079419E-05  0.24100547E-05  0.23896279E-05
  0.23472415E-05  0.22836692E-05  0.21998676E-05  0.20969645E-05  0.19762456E-05
  0.18391398E-05  0.16872034E-05  0.15221038E-05  0.13456024E-05  0.11595360E-05
  0.96579951E-06  0.76632661E-06  0.56307173E-06  0.35799144E-06  0.15302635E-06
 -0.49916591E-07 -0.24898112E-06 -0.44237803E-06 -0.62840059E-06 -0.80543899E-06
 -0.97199359E-06 -0.11266870E-05 -0.12682748E-05 -0.13956550E-05 -0.15078754E-05
 -0.16041408E-05 -0.16838170E-05 -0.17464343E-05 -0.17916893E-05 -0.18194450E-05
 -0.18297291E-05 -0.18227312E-05 -0.17987984E-05 -0.17584298E-05 -0.17022690E-05
 -0.16310959E-05 -0.15458175E-05 -0.14474574E-05 -0.13371440E-05 -0.12160991E-05
 -0.10856244E-05 -0.94708862E-06 -0.80191338E-06 -0.65155948E-06 -0.49751255E-06
 -0.34126894E-06 -0.18432166E-06 -0.28146562E-07  0.12581105E-06  0.27614937E-06
  0.42152238E-06  0.56065153E-06  0.69233645E-06  0.81546495E-06  0.92902193E-06
  0.10320973E-05  0.11238927E-05  0.12037273E-05  0.12710423E-05  0.13254042E-05
  0.13665066E-05  0.13941717E-05  0.14083493E-05  0.14091159E-05  0.13966714E-05
  0.13713360E-05  0.13335448E-05  0.12838425E-05  0.12228763E-05  0.11513886E-05
  0.10702083E-05  0.98024202E-06  0.88246460E-06  0.77790876E-06  0.66765473E-06
  0.55281947E-06  0.43454578E-06  0.31399122E-06  0.19231715E-06  0.70677884E-07
 -0.49789942E-07 -0.16797769E-06 -0.28281462E-06 -0.39327724E-06 -0.49839817E-06
 -0.59727430E-06 -0.68907419E-06 -0.77304482E-06 -0.84851734E-06 -0.91491216E-06
 -0.97174291E-06 -0.10186197E-05 -0.10552512E-05 -0.10814460E-05 -0.10971130E-05
 -0.11022606E-05 -0.10969951E-05 -0.10815188E-05 -0.10561259E-05 -0.10211993E-05
 -0.97720498E-06 -0.92468694E-06 -0.86426078E-06 -0.79660703E-06 -0.72246380E-06
 -0.64261912E-06 -0.55790286E-06 -0.46917839E-06 -0.37733407E-06 -0.28327461E-06
 -0.18791239E-06 -0.92158872E-07  0.30839106E-08  0.96931594E-07  0.18852549E-06
  0.27704023E-06  0.36169097E-06  0.44174012E-06  0.51650361E-06  0.58535643E-06
  0.64773766E-06  0.70315482E-06  0.75118743E-06  0.79148999E-06  0.82379409E-06
  0.84790987E-06  0.86372666E-06  0.87121291E-06  0.87041540E-06  0.86145768E-06
  0.84453785E-06  0.81992570E-06  0.78795915E-06  0.74904021E-06  0.70363027E-06
  0.65224504E-06  0.59544894E-06  0.53384916E-06  0.46808944E-06  0.39884354E-06
  0.32680850E-06  0.25269788E-06  0.17723483E-06  0.10114522E-06  0.25150814E-07
 -0.50037378E-07 -0.12372563E-06 -0.19524372E-06 -0.26395087E-06 -0.32924133E-06
 -0.39054957E-06 -0.44735498E-06 -0.49918618E-06 -0.54562469E-06 -0.58630819E-06
 -0.62093308E-06 -0.64925659E-06 -0.67109815E-06 -0.68634034E-06 -0.69492905E-06
 -0.69687317E-06 -0.69224368E-06 -0.68117213E-06 -0.66384862E-06 -0.64051922E-06
 -0.61148296E-06 -0.57708829E-06 -0.53772920E-06 -0.49384092E-06 -0.44589530E-06
 -0.39439592E-06 -0.33987297E-06 -0.28287794E-06 -0.22397818E-06 -0.16375139E-06
 -0.10278009E-06 -0.41646093E-07  0.19074898E-07  0.78818616E-07  0.13703734E-06
  0.19320482E-06  0.24682087E-06  0.29741578E-06  0.34455423E-06  0.38783897E-06
  0.42691401E-06  0.46146744E-06  0.49123375E-06  0.51599570E-06  0.53558578E-06
  0.54988710E-06  0.55883380E-06  0.56241107E-06  0.56065460E-06  0.55364959E-06
  0.54152931E-06  0.52447328E-06  0.50270496E-06  0.47648909E-06  0.44612873E-06
  0.41196189E-06  0.37435792E-06  0.33371372E-06  0.29044959E-06  0.24500505E-06
  0.19783447E-06  0.14940264E-06  0.10018028E-06  0.50639545E-07  0.12496115E-08
 -0.47527686E-07 -0.95242083E-07 -0.14145896E-06 -0.18576320E-06 -0.22776284E-06
 -0.26709246E-06 -0.30341624E-06 -0.33643077E-06 -0.36586745E-06 -0.39149459E-06
 -0.41311913E-06 -0.43058794E-06 -0.44378876E-06 -0.45265076E-06 -0.45714468E-06
 -0.45728259E-06 -0.45311725E-06 -0.44474113E-06 -0.43228505E-06 -0.41591648E-06
 -0.39583751E-06 -0.37228255E-06 -0.34551571E-06 -0.31582799E-06 -0.28353419E-06
 -0.24896972E-06 -0.21248714E-06 -0.17445272E-06 -0.13524277E-06 -0.95240041E-07
 -0.54830050E-07 -0.14397422E-07  0.25677689E-07  0.65023115E-07  0.10327806E-06
  0.14009634E-06  0.17514946E-06  0.20812945E-06  0.23875156E-06  0.26675657E-06
  0.29191298E-06  0.31401879E-06  0.33290307E-06  0.34842721E-06  0.36048575E-06
  0.36900706E-06  0.37395354E-06  0.37532161E-06  0.37314132E-06  0.36747562E-06
  0.35841948E-06  0.34609850E-06  0.33066747E-06  0.31230849E-06  0.29122899E-06
  0.26765947E-06  0.24185105E-06  0.21407290E-06  0.18460946E-06  0.15375765E-06
  0.12182389E-06  0.89121130E-07  0.55965854E-07  0.22675051E-07 -0.10436755E-07
 -0.43060423E-07 -0.74895033E-07 -0.10565061E-06 -0.13505072E-06 -0.16283489E-06
 -0.18876086E-06 -0.21260669E-06 -0.23417253E-06 -0.25328228E-06 -0.26978497E-06
 -0.28355586E-06 -0.29449731E-06 -0.30253938E-06 -0.30764018E-06 -0.30978593E-06
 -0.30899073E-06 -0.30529615E-06 -0.29877051E-06 -0.28950792E-06 -0.27762709E-06
 -0.26326996E-06 -0.24660009E-06 -0.22780085E-06 -0.20707353E-06 -0.18463518E-06
 -0.16071643E-06 -0.13555919E-06 -0.10941419E-06 -0.82538583E-07 -0.55193443E-07
 -0.27641259E-07 -0.14346725E-09  0.27041992E-07  0.53663052E-07  0.79475821E-07
  0.10424677E-06  0.12775482E-06  0.14979327E-06  0.17017154E-06  0.18871683E-06
  0.20527552E-06  0.21971437E-06  0.23192156E-06  0.24180751E-06  0.24930544E-06
  0.25437177E-06  0.25698623E-06  0.25715183E-06  0.25489455E-06  0.25026281E-06
  0.24332683E-06  0.23417766E-06  0.22292613E-06  0.20970159E-06  0.19465046E-06
  0.17793469E-06  0.15973007E-06  0.14022440E-06  0.11961562E-06  0.98109839E-07
  0.75919279E-07  0.53260253E-07  0.30351070E-07  0.74099673E-08 -0.15346935E-07
 -0.37707641E-07 -0.59466223E-07 -0.80424685E-07 -0.10039473E-06 -0.11919944E-06
 -0.13667478E-06 -0.15267102E-06 -0.16705396E-06 -0.17970606E-06 -0.19052732E-06
 -0.19943603E-06 -0.20636936E-06 -0.21128372E-06 -0.21415499E-06 -0.21497847E-06
 -0.21376879E-06 -0.21055952E-06 -0.20540263E-06 -0.19836785E-06 -0.18954179E-06
 -0.17902693E-06 -0.16694054E-06 -0.15341337E-06 -0.13858827E-06 -0.12261877E-06
 -0.10566748E-06 -0.87904455E-07 -0.69505573E-07 -0.50650766E-07 -0.31522315E-07
 -0.12303105E-07  0.68250971E-08  0.25683337E-07  0.44097122E-07  0.61898013E-07
  0.78925140E-07  0.95026630E-07  0.11006094E-06  0.12389807E-06  0.13642066E-06
  0.14752498E-06  0.15712170E-06  0.16513665E-06  0.17151130E-06  0.17620315E-06
  0.17918600E-06  0.18044995E-06  0.18000139E-06  0.17786273E-06  0.17407201E-06
  0.16868243E-06  0.16176161E-06  0.15339088E-06  0.14366430E-06  0.13268772E-06
  0.12057759E-06  0.10745979E-06  0.93468350E-07  0.78744089E-07  0.63433236E-07
  0.47685992E-07  0.31655078E-07  0.15494279E-07 -0.64301822E-09 -0.16605253E-07
 -0.32244103E-07 -0.47415837E-07 -0.61982619E-07 -0.75813743E-07 -0.88786779E-07
 -0.10078865E-06 -0.11171657E-06 -0.12147893E-06 -0.12999604E-06 -0.13720073E-06
 -0.14303886E-06 -0.14746970E-06 -0.15046619E-06 -0.15201500E-06 -0.15211657E-06
 -0.15078492E-06 -0.14804741E-06 -0.14394432E-06 -0.13852834E-06 -0.13186399E-06
 -0.12402681E-06 -0.11510262E-06 -0.10518655E-06 -0.94382095E-07 -0.82800007E-07
 -0.70557225E-07 -0.57775692E-07 -0.44581164E-07 -0.31101985E-07 -0.17467861E-07
 -0.38086248E-08  0.97469839E-08  0.23072516E-07  0.36044977E-07  0.48545948E-07
  0.60462647E-07  0.71688936E-07  0.82126247E-07  0.91684428E-07  0.10028251E-06
  0.10784937E-06  0.11432429E-06  0.11965744E-06  0.12381024E-06  0.12675556E-06
  0.12847792E-06  0.12897348E-06  0.12824996E-06  0.12632649E-06  0.12323325E-06
  0.11901112E-06  0.11371118E-06  0.10739413E-06  0.10012961E-06  0.91995457E-07
  0.83076919E-07  0.73465742E-07  0.63259267E-07  0.52559451E-07  0.41471869E-07
  0.30104679E-07  0.18567587E-07  0.69707980E-08 -0.45760223E-08 -0.15964774E-07
 -0.27089920E-07 -0.37849454E-07 -0.48145821E-07 -0.57886789E-07 -0.66986265E-07
 -0.75365039E-07 -0.82951462E-07 -0.89682040E-07 -0.95501954E-07 -0.10036549E-06
 -0.10423636E-06 -0.10708798E-06 -0.10890360E-06 -0.10967637E-06 -0.10940932E-06
 -0.10811521E-06 -0.10581632E-06 -0.10254416E-06 -0.98339082E-07 -0.93249803E-07
   16.2516435017787      T
 Non local Part
           0           2   1.24849157520940     
   15.2316426079676        16.1317527832832        16.1317527832832     
   17.0866998162060     
 Reciprocal Space Part
 -0.19448314E+03 -0.19306302E+03 -0.18882552E+03 -0.18183878E+03 -0.17221494E+03
 -0.16010802E+03 -0.14571105E+03 -0.12925250E+03 -0.11099195E+03 -0.91215360E+02
 -0.70229789E+02 -0.48357772E+02 -0.25931501E+02 -0.32868702E+01  0.19242470E+02
  0.41330926E+02  0.62666540E+02  0.82956212E+02  0.10193048E+03  0.11934777E+03
  0.13499799E+03  0.14870553E+03  0.16033145E+03  0.16977499E+03  0.17697426E+03
  0.18190620E+03  0.18458583E+03  0.18506466E+03  0.18342864E+03  0.17979531E+03
  0.17431059E+03  0.16714499E+03  0.15848962E+03  0.14855178E+03  0.13755049E+03
  0.12571198E+03  0.11326510E+03  0.10043700E+03  0.87448913E+02  0.74512299E+02
  0.61825332E+02  0.49569810E+02  0.37908550E+02  0.26983285E+02  0.16913096E+02
  0.77933920E+01 -0.30457407E+00 -0.73336585E+01 -0.13270279E+02 -0.18113399E+02
 -0.21883095E+02 -0.24618752E+02 -0.26376949E+02 -0.27229098E+02 -0.27258905E+02
 -0.26559718E+02 -0.25231817E+02 -0.23379741E+02 -0.21109672E+02 -0.18526968E+02
 -0.15733874E+02 -0.12827457E+02 -0.98978086E+01 -0.70265312E+01 -0.42855321E+01
 -0.17361358E+01  0.57148698E+00  0.25985778E+01  0.43177515E+01  0.57126790E+01
  0.67775197E+01  0.75161332E+01  0.79411059E+01  0.80726297E+01  0.79372721E+01
  0.75666768E+01  0.69962337E+01  0.62637555E+01  0.54081960E+01  0.44684399E+01
  0.34821939E+01  0.24849996E+01  0.15093881E+01  0.58418810E+00 -0.26600337E+00
 -0.10211861E+01 -0.16661581E+01 -0.21905604E+01 -0.25887758E+01 -0.28596939E+01
 -0.30063612E+01 -0.30355334E+01 -0.29571509E+01 -0.27837589E+01 -0.25298933E+01
 -0.22114535E+01 -0.18450823E+01 -0.14475706E+01 -0.10353036E+01 -0.62376373E+00
 Real Space Part
  0.49575243E+03  0.49553442E+03  0.49488052E+03  0.49379108E+03  0.49226671E+03
  0.49030829E+03  0.48791691E+03  0.48509395E+03  0.48184105E+03  0.47816011E+03
  0.47405333E+03  0.46952320E+03  0.46457251E+03  0.45920439E+03  0.45342228E+03
  0.44723001E+03  0.44063174E+03  0.43363205E+03  0.42623594E+03  0.41844883E+03
  0.41027661E+03  0.40172566E+03  0.39280289E+03  0.38351573E+03  0.37387223E+03
  0.36388102E+03  0.35355141E+03  0.34289339E+03  0.33191767E+03  0.32063573E+03
  0.30905987E+03  0.29720324E+03  0.28507989E+03  0.27270480E+03  0.26009396E+03
  0.24726437E+03  0.23423413E+03  0.22102247E+03  0.20764976E+03  0.19413760E+03
  0.18050884E+03  0.16678761E+03  0.15299935E+03  0.13917085E+03  0.12533023E+03
  0.11150702E+03  0.97732074E+02  0.84037629E+02  0.70457241E+02  0.57025760E+02
  0.43779271E+02  0.30755015E+02  0.17991295E+02  0.55273544E+01 -0.65967707E+01
 -0.18340425E+02 -0.29662540E+02 -0.40521871E+02 -0.50877264E+02 -0.60687965E+02
 -0.69913958E+02 -0.78516339E+02 -0.86457728E+02 -0.93702711E+02 -0.10021831E+03
 -0.10597450E+03 -0.11094471E+03 -0.11510634E+03 -0.11844137E+03 -0.12093684E+03
 -0.12258540E+03 -0.12338582E+03 -0.12334342E+03 -0.12247055E+03 -0.12078686E+03
 -0.11831962E+03 -0.11510388E+03 -0.11118249E+03 -0.10660614E+03 -0.10143306E+03
 -0.95728783E+02 -0.89565660E+02 -0.83022247E+02 -0.76182612E+02 -0.69135432E+02
 -0.61973077E+02 -0.54790491E+02 -0.47684104E+02 -0.40750594E+02 -0.34085696E+02
 -0.27782961E+02 -0.21932566E+02 -0.16620156E+02 -0.11925784E+02 -0.79228945E+01
 -0.46776202E+01 -0.22479149E+01 -0.67867639E+00 -0.35209258E-01  0.00000000E+00
 Reciprocal Space Part
  0.19033360E+03  0.18897596E+03  0.18492482E+03  0.17824510E+03  0.16904363E+03
  0.15746717E+03  0.14369966E+03  0.12795878E+03  0.11049190E+03  0.91571543E+02
  0.71490348E+02  0.50555752E+02  0.29084428E+02  0.73966249E+01 -0.14189493E+02
 -0.35363381E+02 -0.55827423E+02 -0.75301906E+02 -0.93529577E+02 -0.11027968E+03
 -0.12535139E+03 -0.13857669E+03 -0.14982243E+03 -0.15899177E+03 -0.16602490E+03
 -0.17089893E+03 -0.17362724E+03 -0.17425798E+03 -0.17287206E+03 -0.16958055E+03
 -0.16452152E+03 -0.15785657E+03 -0.14976689E+03 -0.14044921E+03 -0.13011146E+03
 -0.11896852E+03 -0.10723786E+03 -0.95135402E+02 -0.82871541E+02 -0.70647457E+02
 -0.58651770E+02 -0.47057608E+02 -0.36020116E+02 -0.25674448E+02 -0.16134280E+02
 -0.74908195E+01  0.18765547E+00  0.68557609E+01  0.12490495E+02  0.17090283E+02
  0.20673618E+02  0.23277358E+02  0.24954719E+02  0.25773043E+02  0.25811383E+02
  0.25157991E+02  0.23907748E+02  0.22159621E+02  0.20014184E+02  0.17571274E+02
  0.14927813E+02  0.12175848E+02  0.94008408E+01  0.66802276E+01  0.40822710E+01
  0.16652132E+01 -0.52326995E+00 -0.24463180E+01 -0.40778529E+01 -0.54022816E+01
 -0.64139607E+01 -0.71164517E+01 -0.75215993E+01 -0.76484706E+01 -0.75221892E+01
 -0.71727040E+01 -0.66335281E+01 -0.59404841E+01 -0.51304874E+01 -0.42403991E+01
 -0.33059725E+01 -0.23609167E+01 -0.14360932E+01 -0.55885884E+00  0.24743794E+00
  0.96380406E+00  0.15757944E+01  0.20735556E+01  0.24517307E+01  0.27092378E+01
  0.28489387E+01  0.28772152E+01  0.28034723E+01  0.26395884E+01  0.23993333E+01
  0.20977739E+01  0.17506853E+01  0.13739867E+01  0.98321587E+00  0.59305726E+00
 Real Space Part
 -0.46558570E+03 -0.46538015E+03 -0.46476360E+03 -0.46373640E+03 -0.46229911E+03
 -0.46045256E+03 -0.45819778E+03 -0.45553606E+03 -0.45246895E+03 -0.44899824E+03
 -0.44512599E+03 -0.44085456E+03 -0.43618656E+03 -0.43112494E+03 -0.42567294E+03
 -0.41983417E+03 -0.41361254E+03 -0.40701239E+03 -0.40003839E+03 -0.39269567E+03
 -0.38498979E+03 -0.37692674E+03 -0.36851305E+03 -0.35975574E+03 -0.35066237E+03
 -0.34124111E+03 -0.33150073E+03 -0.32145065E+03 -0.31110100E+03 -0.30046259E+03
 -0.28954706E+03 -0.27836680E+03 -0.26693508E+03 -0.25526606E+03 -0.24337484E+03
 -0.23127749E+03 -0.21899109E+03 -0.20653381E+03 -0.19392491E+03 -0.18118480E+03
 -0.16833508E+03 -0.15539855E+03 -0.14239926E+03 -0.12936252E+03 -0.11631494E+03
 -0.10328442E+03 -0.90300134E+02 -0.77392564E+02 -0.64593437E+02 -0.51935704E+02
 -0.39453484E+02 -0.27181991E+02 -0.15157442E+02 -0.34169451E+01  0.80016460E+01
  0.19059891E+02  0.29718961E+02  0.39939860E+02  0.49683685E+02  0.58911910E+02
  0.67586711E+02  0.75671320E+02  0.83130415E+02  0.89930539E+02  0.96040547E+02
  0.10143208E+03  0.10608006E+03  0.10996319E+03  0.11306448E+03  0.11537175E+03
  0.11687814E+03  0.11758257E+03  0.11749019E+03  0.11661276E+03  0.11496901E+03
  0.11258483E+03  0.10949352E+03  0.10573574E+03  0.10135955E+03  0.96420206E+02
  0.90979815E+02  0.85106960E+02  0.78876087E+02  0.72366856E+02  0.65663280E+02
  0.58852859E+02  0.52025524E+02  0.45272597E+02  0.38685629E+02  0.32355262E+02
  0.26370064E+02  0.20815392E+02  0.15772304E+02  0.11316550E+02  0.75176147E+01
  0.44380490E+01  0.21326504E+01  0.64383865E+00  0.33398857E-01  0.00000000E+00
 Non local Part
           1           2   1.24849157520940     
   5.37673202578012        7.11363050585147        7.11363050585147     
   9.41689408771595     
 Reciprocal Space Part
  0.00000000E+00  0.77125257E+01  0.15235824E+02  0.22384641E+02  0.28981581E+02
  0.34860821E+02  0.39871569E+02  0.43881191E+02  0.46777944E+02  0.48473250E+02
  0.48903465E+02  0.48031114E+02  0.45845552E+02  0.42363058E+02  0.37626352E+02
  0.31703552E+02  0.24686608E+02  0.16689240E+02  0.78444328E+01 -0.16984442E+01
 -0.11776834E+02 -0.22218430E+02 -0.32844770E+02 -0.43474916E+02 -0.53929130E+02
 -0.64032469E+02 -0.73618216E+02 -0.82531087E+02 -0.90630133E+02 -0.97791292E+02
 -0.10390953E+03 -0.10890054E+03 -0.11270197E+03 -0.11527418E+03 -0.11660045E+03
 -0.11668680E+03 -0.11556120E+03 -0.11327249E+03 -0.10988878E+03 -0.10549556E+03
 -0.10019343E+03 -0.94095681E+02 -0.87325576E+02 -0.80013604E+02 -0.72294621E+02
 -0.64305017E+02 -0.56179950E+02 -0.48050718E+02 -0.40042303E+02 -0.32271158E+02
 -0.24843264E+02 -0.17852493E+02 -0.11379304E+02 -0.54897857E+01 -0.23505879E+00
  0.43489727E+01  0.82415223E+01  0.11436496E+02  0.13941766E+02  0.15778166E+02
  0.16978261E+02  0.17584914E+02  0.17649699E+02  0.17231212E+02  0.16393315E+02
  0.15203363E+02  0.13730456E+02  0.12043762E+02  0.10210936E+02  0.82966758E+01
  0.63614467E+01  0.44603842E+01  0.26424011E+01  0.94950659E+00 -0.58365998E+00
 -0.19300798E+01 -0.30703977E+01 -0.39927693E+01 -0.46925279E+01 -0.51716918E+01
 -0.54383346E+01 -0.55058440E+01 -0.53920956E+01 -0.51185699E+01 -0.47094394E+01
 -0.41906515E+01 -0.35890347E+01 -0.29314481E+01 -0.22439966E+01 -0.15513289E+01
 -0.87603034E+00 -0.23812350E+00  0.34531833E+00  0.86044139E+00  0.12967656E+01
  0.16472268E+01  0.19081126E+01  0.20789033E+01  0.21620274E+01  0.21625451E+01
 Real Space Part
  0.00000000E+00 -0.12861513E+02 -0.25689240E+02 -0.38449463E+02 -0.51108604E+02
 -0.63633293E+02 -0.75990435E+02 -0.88147285E+02 -0.10007151E+03 -0.11173127E+03
 -0.12309527E+03 -0.13413283E+03 -0.14481400E+03 -0.15510955E+03 -0.16499111E+03
 -0.17443119E+03 -0.18340329E+03 -0.19188193E+03 -0.19984277E+03 -0.20726261E+03
 -0.21411954E+03 -0.22039295E+03 -0.22606362E+03 -0.23111380E+03 -0.23552727E+03
 -0.23928942E+03 -0.24238731E+03 -0.24480977E+03 -0.24654744E+03 -0.24759284E+03
 -0.24794050E+03 -0.24758694E+03 -0.24653085E+03 -0.24477307E+03 -0.24231672E+03
 -0.23916724E+03 -0.23533247E+03 -0.23082274E+03 -0.22565090E+03 -0.21983239E+03
 -0.21338532E+03 -0.20633050E+03 -0.19869152E+03 -0.19049473E+03 -0.18176934E+03
 -0.17254742E+03 -0.16286386E+03 -0.15275646E+03 -0.14226583E+03 -0.13143538E+03
 -0.12031127E+03 -0.10894231E+03 -0.97379883E+02 -0.85677752E+02 -0.73891935E+02
 -0.62080480E+02 -0.50303226E+02 -0.38621511E+02 -0.27097845E+02 -0.15795537E+02
 -0.47782683E+01  0.58903771E+01  0.16147432E+02  0.25931114E+02  0.35181435E+02
  0.43840858E+02  0.51854984E+02  0.59173271E+02  0.65749772E+02  0.71543888E+02
  0.76521105E+02  0.80653735E+02  0.83921599E+02  0.86312676E+02  0.87823673E+02
  0.88460528E+02  0.88238771E+02  0.87183776E+02  0.85330908E+02  0.82725434E+02
  0.79422345E+02  0.75485975E+02  0.70989402E+02  0.66013769E+02  0.60647311E+02
  0.54984365E+02  0.49124092E+02  0.43169231E+02  0.37224633E+02  0.31395825E+02
  0.25787499E+02  0.20502018E+02  0.15637958E+02  0.11288727E+02  0.75412455E+01
  0.44748905E+01  0.21603868E+01  0.65591183E+00  0.27506239E-01  0.00000000E+00
 Reciprocal Space Part
  0.00000000E+00 -0.54618664E+01 -0.10784874E+02 -0.15833101E+02 -0.20476440E+02
 -0.24593336E+02 -0.28073350E+02 -0.30819464E+02 -0.32750104E+02 -0.33800812E+02
 -0.33925555E+02 -0.33097625E+02 -0.31310127E+02 -0.28576037E+02 -0.24927835E+02
 -0.20416725E+02 -0.15111467E+02 -0.90968376E+01 -0.24717698E+01  0.46527889E+01
  0.12156252E+02  0.19910943E+02  0.27784767E+02  0.35643935E+02  0.43355689E+02
  0.50790964E+02  0.57826929E+02  0.64349354E+02  0.70254759E+02  0.75452291E+02
  0.79865301E+02  0.83432594E+02  0.86109323E+02  0.87867527E+02  0.88696291E+02
  0.88601553E+02  0.87605564E+02  0.85746009E+02  0.83074837E+02  0.79656823E+02
  0.75567898E+02  0.70893301E+02  0.65725586E+02  0.60162551E+02  0.54305111E+02
  0.48255195E+02  0.42113683E+02  0.35978455E+02  0.29942568E+02  0.24092613E+02
  0.18507280E+02  0.13256144E+02  0.83987076E+01  0.39836995E+01  0.48638920E-01
 -0.33803356E+01 -0.62883812E+01 -0.86716216E+01 -0.10536593E+02 -0.11899489E+02
 -0.12785228E+02 -0.13226379E+02 -0.13261973E+02 -0.12936231E+02 -0.12297256E+02
 -0.11395704E+02 -0.10283477E+02 -0.90124746E+01 -0.76334091E+01 -0.61947358E+01
 -0.47416990E+01 -0.33155180E+01 -0.19527249E+01 -0.68466010E+00  0.46287036E+00
  0.14697771E+01  0.23217145E+01  0.30099610E+01  0.35311659E+01  0.38869765E+01
  0.40835636E+01  0.41310641E+01  0.40429607E+01  0.38354195E+01  0.35266055E+01
  0.31359964E+01  0.26837136E+01  0.21898861E+01  0.16740644E+01  0.11546957E+01
  0.64867173E+00  0.17095643E+00 -0.26570177E+00 -0.65097016E+00 -0.97704538E+00
 -0.12386831E+01 -0.14331486E+01 -0.15600961E+01 -0.16213842E+01 -0.16208385E+01
 Real Space Part
  0.00000000E+00  0.97794257E+01  0.19533291E+02  0.29236086E+02  0.38862408E+02
  0.48387010E+02  0.57784855E+02  0.67031168E+02  0.76101488E+02  0.84971719E+02
  0.93618187E+02  0.10201769E+03  0.11014754E+03  0.11798563E+03  0.12551050E+03
  0.13270133E+03  0.13953808E+03  0.14600145E+03  0.15207301E+03  0.15773522E+03
  0.16297147E+03  0.16776615E+03  0.17210470E+03  0.17597368E+03  0.17936079E+03
  0.18225495E+03  0.18464634E+03  0.18652647E+03  0.18788823E+03  0.18872591E+03
  0.18903533E+03  0.18881382E+03  0.18806031E+03  0.18677540E+03  0.18496137E+03
  0.18262228E+03  0.17976397E+03  0.17639418E+03  0.17252255E+03  0.16816065E+03
  0.16332210E+03  0.15802252E+03  0.15227964E+03  0.14611329E+03  0.13954543E+03
  0.13260018E+03  0.12530381E+03  0.11768475E+03  0.10977358E+03  0.10160298E+03
  0.93207708E+02  0.84624522E+02  0.75892109E+02  0.67050980E+02  0.58143334E+02
  0.49212911E+02  0.40304808E+02  0.31465256E+02  0.22741383E+02  0.14180927E+02
  0.58319175E+01 -0.22576753E+01 -0.10040333E+02 -0.17469415E+02 -0.24499616E+02
 -0.31087461E+02 -0.37191820E+02 -0.42774449E+02 -0.47800549E+02 -0.52239327E+02
 -0.56064554E+02 -0.59255122E+02 -0.61795562E+02 -0.63676527E+02 -0.64895229E+02
 -0.65455815E+02 -0.65369642E+02 -0.64655470E+02 -0.63339570E+02 -0.61455670E+02
 -0.59044813E+02 -0.56155081E+02 -0.52841144E+02 -0.49163756E+02 -0.45189021E+02
 -0.40987657E+02 -0.36634034E+02 -0.32205240E+02 -0.27779981E+02 -0.23437505E+02
 -0.19256463E+02 -0.15313786E+02 -0.11683594E+02 -0.84361512E+01 -0.56368788E+01
 -0.33455546E+01 -0.16154805E+01 -0.49056451E+00 -0.20564733E-01  0.00000000E+00
 Non local Part
           2           1   1.24849157520940     
   9.89393210132561     
 Reciprocal Space Part
  0.00000000E+00  0.20982336E-01  0.83557203E-01  0.18661534E+00  0.32833165E+00
  0.50620026E+00  0.71708246E+00  0.95726665E+00  0.12225390E+01  0.15082632E+01
  0.18094679E+01  0.21209401E+01  0.24373217E+01  0.27532082E+01  0.30632479E+01
  0.33622375E+01  0.36452151E+01  0.39075460E+01  0.41450021E+01  0.43538311E+01
  0.45308166E+01  0.46733257E+01  0.47793453E+01  0.48475054E+01  0.48770896E+01
  0.48680329E+01  0.48209072E+01  0.47368942E+01  0.46177480E+01  0.44657477E+01
  0.42836402E+01  0.40745767E+01  0.38420431E+01  0.35897852E+01  0.33217329E+01
  0.30419216E+01  0.27544156E+01  0.24632331E+01  0.21722752E+01  0.18852596E+01
  0.16056608E+01  0.13366576E+01  0.10810887E+01  0.84141645E+00  0.61970066E+00
  0.41758097E+00  0.23626879E+00  0.76548214E-01 -0.61214411E-01 -0.17705292E+00
 -0.27137648E+00 -0.34493835E+00 -0.39879929E+00 -0.43428657E+00 -0.45294982E+00
 -0.45651483E+00 -0.44683636E+00 -0.42585118E+00 -0.39553227E+00 -0.35784524E+00
 -0.31470773E+00 -0.26795270E+00 -0.21929600E+00 -0.17030890E+00 -0.12239585E+00
 -0.76777598E-01 -0.34479864E-01  0.36726743E-02  0.37057177E-01  0.65248587E-01
  0.88011157E-01  0.10528605E+00  0.11717558E+00  0.12392480E+00  0.12590092E+00
  0.12357144E+00  0.11748148E+00  0.10823105E+00  0.96452764E-01  0.82790683E-01
  0.67880618E-01  0.52332396E-01  0.36714394E-01  0.21540587E-01  0.72602649E-02
 -0.57494894E-02 -0.17188576E-01 -0.26835984E-01 -0.34549372E-01 -0.40262346E-01
 -0.43979676E-01 -0.45770761E-01 -0.45761684E-01 -0.44126174E-01 -0.41075864E-01
 -0.36850163E-01 -0.31706107E-01 -0.25908473E-01 -0.19720469E-01 -0.13395214E-01
 Real Space Part
  0.00000000E+00  0.31083501E-02  0.12427053E-01  0.27937073E-01  0.49606690E-01
  0.77391523E-01  0.11123455E+00  0.15106614E+00  0.19680409E+00  0.24835365E+00
  0.30560760E+00  0.36844627E+00  0.43673764E+00  0.51033734E+00  0.58908878E+00
  0.67282317E+00  0.76135963E+00  0.85450523E+00  0.95205510E+00  0.10537925E+01
  0.11594889E+01  0.12689040E+01  0.13817861E+01  0.14978717E+01  0.16168861E+01
  0.17385433E+01  0.18625458E+01  0.19885853E+01  0.21163425E+01  0.22454872E+01
  0.23756785E+01  0.25065652E+01  0.26377855E+01  0.27689678E+01  0.28997306E+01
  0.30296826E+01  0.31584236E+01  0.32855445E+01  0.34106278E+01  0.35332480E+01
  0.36529727E+01  0.37693625E+01  0.38819725E+01  0.39903527E+01  0.40940494E+01
  0.41926062E+01  0.42855655E+01  0.43724695E+01  0.44528627E+01  0.45262933E+01
  0.45923154E+01  0.46504916E+01  0.47003952E+01  0.47416137E+01  0.47737515E+01
  0.47964337E+01  0.48093093E+01  0.48120559E+01  0.48043833E+01  0.47860387E+01
  0.47568107E+01  0.47165347E+01  0.46650976E+01  0.46024432E+01  0.45285769E+01
  0.44435710E+01  0.43475690E+01  0.42407908E+01  0.41235358E+01  0.39961871E+01
  0.38592137E+01  0.37131726E+01  0.35587097E+01  0.33965593E+01  0.32275429E+01
  0.30525660E+01  0.28726139E+01  0.26887455E+01  0.25020868E+01  0.23138208E+01
  0.21251780E+01  0.19374247E+01  0.17518496E+01  0.15697506E+01  0.13924200E+01
  0.12211297E+01  0.10571159E+01  0.90156447E+00  0.75559631E+00  0.62025400E+00
  0.49648929E+00  0.38515225E+00  0.28698153E+00  0.20259737E+00  0.13249519E+00
  0.77044419E-01  0.36485064E-01  0.10863376E-01  0.53869122E-03  0.00000000E+00
 PAW radial sets
         361   1.18754214512852     
(5E20.12)                                
 augmentation charges (non sperical)
 -0.531401570514E+00 -0.560001834548E+00 -0.248458260529E+00 -0.333193629397E+00 -0.112874379192E+00
 -0.560001834548E+00 -0.590167280698E+00 -0.262316535502E+00 -0.351744112043E+00 -0.119319155175E+00
 -0.248458260529E+00 -0.262316535502E+00 -0.122030524661E+00 -0.163179535730E+00 -0.487829958758E-01
 -0.333193629397E+00 -0.351744112043E+00 -0.163179535730E+00 -0.218242843890E+00 -0.655805854152E-01
 -0.112874379192E+00 -0.119319155175E+00 -0.487829958758E-01 -0.655805854152E-01  0.325318219468E-01
 uccopancies in atom
  0.200000000328E+01  0.000000000000E+00  0.000000000000E+00  0.000000000000E+00  0.000000000000E+00
  0.000000000000E+00  0.000000000000E+00  0.000000000000E+00  0.000000000000E+00  0.000000000000E+00
  0.000000000000E+00  0.000000000000E+00  0.166666667016E+01  0.000000000000E+00  0.000000000000E+00
  0.000000000000E+00  0.000000000000E+00  0.000000000000E+00  0.000000000000E+00  0.000000000000E+00
  0.000000000000E+00  0.000000000000E+00  0.000000000000E+00  0.000000000000E+00  0.000000000000E+00
 grid
  0.584046964284E-04  0.603038714544E-04  0.622648029143E-04  0.642894989734E-04  0.663800330973E-04
  0.685385461757E-04  0.707672487146E-04  0.730684231001E-04  0.754444259359E-04  0.778976904565E-04
  0.804307290192E-04  0.830461356768E-04  0.857465888342E-04  0.885348539915E-04  0.914137865759E-04
  0.943863348658E-04  0.974555430105E-04  0.100624554147E-03  0.103896613621E-03  0.107275072305E-03
  0.110763390038E-03  0.114365139161E-03  0.118084008181E-03  0.121923805543E-03  0.125888463537E-03
  0.129982042318E-03  0.134208734068E-03  0.138572867290E-03  0.143078911238E-03  0.147731480493E-03
  0.152535339693E-03  0.157495408411E-03  0.162616766190E-03  0.167904657747E-03  0.173364498346E-03
  0.179001879341E-03  0.184822573902E-03  0.190832542929E-03  0.197037941156E-03  0.203445123453E-03
  0.210060651334E-03  0.216891299678E-03  0.223944063666E-03  0.231226165945E-03  0.238745064022E-03
  0.246508457908E-03  0.254524297996E-03  0.262800793207E-03  0.271346419394E-03  0.280169928026E-03
  0.289280355147E-03  0.298687030630E-03  0.308399587733E-03  0.318427972963E-03  0.328782456263E-03
  0.339473641529E-03  0.350512477469E-03  0.361910268814E-03  0.373678687900E-03  0.385829786617E-03
  0.398376008750E-03  0.411330202728E-03  0.424705634777E-03  0.438516002509E-03  0.452775448947E-03
  0.467498577010E-03  0.482700464468E-03  0.498396679382E-03  0.514603296048E-03  0.531336911458E-03
  0.548614662295E-03  0.566454242486E-03  0.584873921321E-03  0.603892562161E-03  0.623529641755E-03
  0.643805270188E-03  0.664740211477E-03  0.686355904830E-03  0.708674486607E-03  0.731718812985E-03
  0.755512483368E-03  0.780079864554E-03  0.805446115688E-03  0.831637214028E-03  0.858679981547E-03
  0.886602112402E-03  0.915432201296E-03  0.945199772758E-03  0.975935311383E-03  0.100767029305E-02
  0.104043721715E-02  0.107426963988E-02  0.110920220859E-02  0.114527069729E-02  0.118251204327E-02
  0.122096438491E-02  0.126066710077E-02  0.130166084991E-02  0.134398761350E-02  0.138769073785E-02
  0.143281497878E-02  0.147940654746E-02  0.152751315771E-02  0.157718407492E-02  0.162847016645E-02
  0.168142395372E-02  0.173609966606E-02  0.179255329616E-02  0.185084265748E-02  0.191102744341E-02
  0.197316928844E-02  0.203733183124E-02  0.210358077987E-02  0.217198397904E-02  0.224261147960E-02
  0.231553561029E-02  0.239083105178E-02  0.246857491319E-02  0.254884681103E-02  0.263172895073E-02
  0.271730621084E-02  0.280566622997E-02  0.289689949649E-02  0.299109944123E-02  0.308836253318E-02
  0.318878837824E-02  0.329247982125E-02  0.339954305130E-02  0.351008771051E-02  0.362422700625E-02
  0.374207782716E-02  0.386376086275E-02  0.398940072710E-02  0.411912608641E-02  0.425306979078E-02
  0.439136901026E-02  0.453416537535E-02  0.468160512200E-02  0.483383924139E-02  0.499102363457E-02
  0.515331927208E-02  0.532089235885E-02  0.549391450436E-02  0.567256289840E-02  0.585702049254E-02
  0.604747618748E-02  0.624412502649E-02  0.644716839516E-02  0.665681422766E-02  0.687327721962E-02
  0.709677904807E-02  0.732754859842E-02  0.756582219884E-02  0.781184386233E-02  0.806586553656E-02
  0.832814736194E-02  0.859895793796E-02  0.887857459833E-02  0.916728369493E-02  0.946538089112E-02
  0.977317146446E-02  0.100909706194E-01  0.104191038101E-01  0.107579070735E-01  0.111077273738E-01
  0.114689229576E-01  0.118418637207E-01  0.122269315871E-01  0.126245208998E-01  0.130350388252E-01
  0.134589057693E-01  0.138965558091E-01  0.143484371363E-01  0.148150125170E-01  0.152967597651E-01
  0.157941722320E-01  0.163077593113E-01  0.168380469612E-01  0.173855782426E-01  0.179509138753E-01
  0.185346328125E-01  0.191373328333E-01  0.197596311553E-01  0.204021650662E-01  0.210655925769E-01
  0.217505930953E-01  0.224578681217E-01  0.231881419675E-01  0.239421624969E-01  0.247207018929E-01
  0.255245574479E-01  0.263545523801E-01  0.272115366769E-01  0.280963879652E-01  0.290100124099E-01
  0.299533456423E-01  0.309273537182E-01  0.319330341068E-01  0.329714167128E-01  0.340435649306E-01
  0.351505767339E-01  0.362935857993E-01  0.374737626681E-01  0.386923159444E-01  0.399504935334E-01
  0.412495839188E-01  0.425909174827E-01  0.439758678679E-01  0.454058533846E-01  0.468823384629E-01
  0.484068351526E-01  0.499809046715E-01  0.516061590043E-01  0.532842625535E-01  0.550169338438E-01
  0.568059472819E-01  0.586531349740E-01  0.605603886017E-01  0.625296613593E-01  0.645629699543E-01
  0.666623966723E-01  0.688300915098E-01  0.710682743756E-01  0.733792373646E-01  0.757653471049E-01
  0.782290471813E-01  0.807728606381E-01  0.833993925624E-01  0.861113327525E-01  0.889114584721E-01
  0.918026372946E-01  0.947878300399E-01  0.978700938061E-01  0.101052585101E+00  0.104338563073E+00
  0.107731392851E+00  0.111234548990E+00  0.114851619026E+00  0.118586307157E+00  0.122442438030E+00
  0.126423960658E+00  0.130534952469E+00  0.134779623479E+00  0.139162320600E+00  0.143687532098E+00
  0.148359892186E+00  0.153184185767E+00  0.158165353340E+00  0.163308496057E+00  0.168618880943E+00
  0.174101946299E+00  0.179763307261E+00  0.185608761559E+00  0.191644295448E+00  0.197876089842E+00
  0.204310526643E+00  0.210954195277E+00  0.217813899441E+00  0.224896664071E+00  0.232209742538E+00
  0.239760624073E+00  0.247557041439E+00  0.255606978847E+00  0.263918680138E+00  0.272500657219E+00
  0.281361698786E+00  0.290510879319E+00  0.299957568378E+00  0.309711440199E+00  0.319782483599E+00
  0.330181012206E+00  0.340917675022E+00  0.352003467328E+00  0.363449741944E+00  0.375268220856E+00
  0.387471007219E+00  0.400070597752E+00  0.413079895536E+00  0.426512223231E+00  0.440381336713E+00
  0.454701439165E+00  0.469487195626E+00  0.484753748000E+00  0.500516730572E+00  0.516792286014E+00
  0.533597081916E+00  0.550948327858E+00  0.568863793032E+00  0.587361824440E+00  0.606461365682E+00
  0.626181976358E+00  0.646543852096E+00  0.667567845237E+00  0.689275486186E+00  0.711689005465E+00
  0.734831356475E+00  0.758726239008E+00  0.783398123510E+00  0.808872276147E+00  0.835174784678E+00
  0.862332585169E+00  0.890373489583E+00  0.919326214254E+00  0.949220409303E+00  0.980086688998E+00
  0.101195666311E+01  0.104486296927E+01  0.107883930641E+01  0.111392046928E+01  0.115014238405E+01
  0.118754214513E+01  0.122615805313E+01  0.126602965413E+01  0.130719778013E+01  0.134970459088E+01
  0.139359361707E+01  0.143890980491E+01  0.148569956212E+01  0.153401080551E+01  0.158389301002E+01
  0.163539725938E+01  0.168857629843E+01  0.174348458718E+01  0.180017835649E+01  0.185871566575E+01
  0.191915646227E+01  0.198156264271E+01  0.204599811646E+01  0.211252887106E+01  0.218122303984E+01
  0.225215097161E+01  0.232538530277E+01  0.240100103169E+01  0.247907559548E+01  0.255968894930E+01
  0.264292364829E+01  0.272886493205E+01  0.281760081195E+01  0.290922216130E+01  0.300382280837E+01
  0.310149963247E+01  0.320235266323E+01  0.330648518294E+01  0.341400383242E+01  0.352501872015E+01
  0.363964353508E+01  0.375799566305E+01  0.388019630696E+01  0.400637061095E+01  0.413664778855E+01
  0.427116125496E+01  0.441004876372E+01  0.455345254779E+01  0.470151946517E+01  0.485440114932E+01
  0.501225416445E+01  0.517524016583E+01  0.534352606538E+01  0.551728420256E+01  0.569669252089E+01
  0.588193475016E+01
 aepotential
  0.959407590933E+04  0.971771875466E+04  0.983298354248E+04  0.993906952772E+04  0.100352046036E+05
  0.101206516450E+05  0.101947184350E+05  0.102567666979E+05  0.103062213401E+05  0.103425788533E+05
  0.103654152905E+05  0.103743932797E+05  0.103692680806E+05  0.103498922822E+05  0.103162193706E+05
  0.102683057506E+05  0.102063110791E+05  0.101304974331E+05  0.100412265845E+05  0.993895549996E+04
  0.982423201439E+04  0.969768525933E+04  0.956002122455E+04  0.941201002903E+04  0.925447861870E+04
  0.908829868270E+04  0.891437662253E+04  0.873364231303E+04  0.854703780498E+04  0.835550743548E+04
  0.815998701717E+04  0.796139490776E+04  0.776062287041E+04  0.755852881090E+04  0.735592959372E+04
  0.715359577715E+04  0.695224672732E+04  0.675254722093E+04  0.655510501529E+04  0.636046930106E+04
  0.616913023603E+04  0.598151924511E+04  0.579801008896E+04  0.561892061105E+04  0.544451502124E+04
  0.527500664527E+04  0.511056102062E+04  0.495129925613E+04  0.479730156517E+04  0.464861088943E+04
  0.450523654730E+04  0.436715784273E+04  0.423432758424E+04  0.410667547118E+04  0.398411131375E+04
  0.386652806160E+04  0.375380462297E+04  0.364580846337E+04  0.354239797848E+04  0.344342464121E+04
  0.334873492554E+04  0.325817201726E+04  0.317157731405E+04  0.308879173900E+04  0.300965686870E+04
  0.293401588948E+04  0.286171441171E+04  0.279260113452E+04  0.272652839093E+04  0.266335258143E+04
  0.260293450147E+04  0.254513959888E+04  0.248983813299E+04  0.243690528797E+04  0.238622121965E+04
  0.233767106127E+04  0.229114488226E+04  0.224653762478E+04  0.220374900042E+04  0.216268337959E+04
  0.212324965284E+04  0.208536108537E+04  0.204893516373E+04  0.201389342717E+04  0.198016130785E+04
  0.194766796156E+04  0.191634609618E+04  0.188613181331E+04  0.185696443641E+04  0.182878635756E+04
  0.180154287857E+04  0.177518206363E+04  0.174965458948E+04  0.172491361124E+04  0.170091462496E+04
  0.167761534193E+04  0.165497556520E+04  0.163295707532E+04  0.161152351842E+04  0.159064030326E+04
  0.157027450113E+04  0.155039475284E+04  0.153097118094E+04  0.151197530442E+04  0.149337996344E+04
  0.147515924201E+04  0.145728840123E+04  0.143974381222E+04  0.142250289736E+04  0.140554406923E+04
  0.138884668141E+04  0.137239097595E+04  0.135615803531E+04  0.134012974278E+04  0.132428873812E+04
  0.130861838255E+04  0.129310272191E+04  0.127772645664E+04  0.126247491029E+04  0.124733400359E+04
  0.123229022881E+04  0.121733062751E+04  0.120244277046E+04  0.118761473871E+04  0.117283510800E+04
  0.115809293407E+04  0.114337774061E+04  0.112867950881E+04  0.111398866909E+04  0.109929609427E+04
  0.108459309510E+04  0.106987141725E+04  0.105512324050E+04  0.104034117974E+04  0.102551828779E+04
  0.101064806043E+04  0.995724443412E+03  0.980741841586E+03  0.965695130347E+03  0.950579669395E+03
  0.935391318956E+03  0.920126458800E+03  0.904782009782E+03  0.889355458731E+03  0.873844886144E+03
  0.858248997589E+03  0.842567158480E+03  0.826799432774E+03  0.810946625496E+03  0.795010329500E+03
  0.778992976159E+03  0.762897890245E+03  0.746729348505E+03  0.730492641574E+03  0.714194138381E+03
  0.697841351724E+03  0.681443003453E+03  0.665009086448E+03  0.648550920418E+03  0.632081197017E+03
  0.615614008941E+03  0.599164856528E+03  0.582750624094E+03  0.566389517638E+03  0.550100955103E+03
  0.533905401145E+03  0.517824140870E+03  0.501878991686E+03  0.486091960866E+03  0.470484869280E+03
  0.455078980191E+03  0.439894696305E+03  0.424951417712E+03  0.410267684064E+03  0.395861749228E+03
  0.381752742007E+03  0.367962532429E+03  0.354518325044E+03  0.341455815594E+03  0.328822471002E+03
  0.316680159361E+03  0.305106062449E+03  0.294190714215E+03  0.284032278456E+03  0.274726967000E+03
  0.266356602250E+03  0.258975480254E+03  0.252599311727E+03  0.247198748110E+03  0.242698876584E+03
  0.238984585294E+03  0.235910504356E+03  0.233313657392E+03  0.231026870897E+03  0.228891074953E+03
  0.226764845537E+03  0.224530111828E+03  0.222093918519E+03  0.219387101667E+03  0.216361215887E+03
  0.212984914180E+03  0.209240515926E+03  0.205121056018E+03  0.200627860579E+03  0.195768614902E+03
  0.190555883481E+03  0.185006045516E+03  0.179138601611E+03  0.172975794174E+03  0.166542472284E+03
  0.159866126341E+03  0.152977016146E+03  0.145908315971E+03  0.138696201575E+03  0.131379809512E+03
  0.124001015813E+03  0.116604022534E+03  0.109234819203E+03  0.101940711479E+03  0.947702677354E+02
  0.877741652209E+02  0.810073882957E+02  0.745328431577E+02  0.684255369445E+02  0.627751166149E+02
  0.576833930201E+02  0.532535835828E+02  0.495702486159E+02  0.466729697170E+02  0.445314984703E+02
  0.430341403030E+02  0.420014419870E+02  0.412270267209E+02  0.405274117283E+02  0.397724431482E+02
  0.388840157313E+02  0.378157021406E+02  0.365333424837E+02  0.350064560021E+02  0.332087210163E+02
  0.311215300146E+02  0.287362767538E+02  0.260541962380E+02  0.230845675433E+02  0.198425231531E+02
  0.163472986065E+02  0.126212354580E+02  0.868951623733E+01  0.458047678112E+01  0.326296851003E+00
 -0.403617115551E+01 -0.846477733283E+01 -0.129121671522E+02 -0.173272898685E+02 -0.216590399651E+02
 -0.258622429005E+02 -0.299046175277E+02 -0.337701983957E+02 -0.374504840240E+02 -0.409132330025E+02
 -0.440499847322E+02 -0.466356984295E+02 -0.483692348492E+02 -0.490447579291E+02 -0.487805247318E+02
 -0.480517916137E+02 -0.473711156773E+02 -0.469641403831E+02 -0.468001539219E+02 -0.467853879486E+02
 -0.468662928730E+02 -0.470379728910E+02 -0.473212897713E+02 -0.477403542837E+02 -0.483097130710E+02
 -0.490312199107E+02 -0.498965775141E+02 -0.508914221034E+02 -0.519986524202E+02 -0.532004065481E+02
 -0.544789290419E+02 -0.558167626659E+02 -0.571966217292E+02 -0.586011758454E+02 -0.600128830078E+02
 -0.614139495515E+02 -0.627864720111E+02 -0.641127638956E+02 -0.653758429658E+02 -0.665599561746E+02
 -0.676509772504E+02 -0.686364117306E+02 -0.695048587507E+02 -0.702449869515E+02 -0.708445708673E+02
 -0.712905960636E+02 -0.715714143989E+02 -0.716808359016E+02 -0.716221996264E+02 -0.714095169853E+02
 -0.710643167722E+02 -0.706098602863E+02 -0.700661310147E+02 -0.694476518286E+02 -0.687639486738E+02
 -0.680211837943E+02 -0.672237369938E+02 -0.663752530364E+02 -0.654791796212E+02 -0.645389982289E+02
 -0.635583074298E+02 -0.625408500271E+02 -0.614905194584E+02 -0.604113479413E+02 -0.593074812913E+02
 -0.581831152644E+02 -0.570424263243E+02 -0.558894659953E+02 -0.547280355385E+02 -0.535615502132E+02
 -0.523929040586E+02 -0.512243580891E+02 -0.500574830563E+02 -0.488931829035E+02 -0.477318128070E+02
 -0.465734033123E+02 -0.454179321561E+02 -0.442656236161E+02 -0.431172024737E+02 -0.419740643563E+02
 -0.408383379134E+02 -0.397128371428E+02 -0.386009183469E+02 -0.375062645933E+02 -0.364326234901E+02
 -0.353835254153E+02 -0.343620115907E+02 -0.333704039126E+02 -0.324101478582E+02 -0.314817522179E+02
 -0.305848338172E+02 -0.297182553319E+02 -0.288803265764E+02 -0.280690305525E+02 -0.272822373697E+02
 -0.265178794522E+02 -0.257740751751E+02 -0.250492004252E+02 -0.243419158607E+02 -0.236511614089E+02
 -0.229761297923E+02 -0.223162290728E+02 -0.216710416130E+02 -0.210402843132E+02 -0.204237728893E+02
 -0.198213914386E+02 -0.192330675446E+02 -0.186587525921E+02 -0.180984066753E+02 -0.175519873834E+02
 -0.170194417606E+02
 core charge-density
  0.197657463176E-01  0.209594445052E-01  0.222249474455E-01  0.235665477631E-01  0.249887921749E-01
  0.264964962917E-01  0.280947602592E-01  0.297889852851E-01  0.315848910984E-01  0.334885343918E-01
  0.355063283008E-01  0.376450629717E-01  0.399119272802E-01  0.423145317565E-01  0.448609327845E-01
  0.475596581376E-01  0.504197339224E-01  0.534507130016E-01  0.566627049712E-01  0.600664077717E-01
  0.636731410130E-01  0.674948811012E-01  0.715442982527E-01  0.758347954906E-01  0.803805497175E-01
  0.851965549647E-01  0.902986679198E-01  0.957036558409E-01  0.101429246966E+00  0.107494183532E+00
  0.113918277521E+00  0.120722469251E+00  0.127928888944E+00  0.135560921385E+00  0.143643273820E+00
  0.152202047200E+00  0.161264810941E+00  0.170860681307E+00  0.181020403569E+00  0.191776438085E+00
  0.203163050430E+00  0.215216405739E+00  0.227974667376E+00  0.241478100096E+00  0.255769177833E+00
  0.270892696232E+00  0.286895890087E+00  0.303828555787E+00  0.321743178904E+00  0.340695067026E+00
  0.360742487952E+00  0.381946813321E+00  0.404372667767E+00  0.428088083660E+00  0.453164661460E+00
  0.479677735732E+00  0.507706546797E+00  0.537334417993E+00  0.568648938498E+00  0.601742151599E+00
  0.636710748285E+00  0.673656265975E+00  0.712685292155E+00  0.753909672643E+00  0.797446724132E+00
  0.843419450594E+00  0.891956763077E+00  0.943193702312E+00  0.997271663478E+00  0.105433862238E+01
  0.111454936217E+01  0.117806569965E+01  0.124505671002E+01  0.131569894893E+01  0.139017667029E+01
  0.146868203846E+01  0.155141533301E+01  0.163858514419E+01  0.173040855697E+01  0.182711132141E+01
  0.192892800676E+01  0.203610213657E+01  0.214888630174E+01  0.226754224832E+01  0.239234093630E+01
  0.252356256569E+01  0.266149656569E+01  0.280644154229E+01  0.295870517969E+01  0.311860409020E+01
  0.328646360705E+01  0.346261751445E+01  0.364740770824E+01  0.384118378095E+01  0.404430252381E+01
  0.425712733877E+01  0.448002755241E+01  0.471337762406E+01  0.495755623950E+01  0.521294528173E+01
  0.547992866983E+01  0.575889105691E+01  0.605021637793E+01  0.635428623785E+01  0.667147813127E+01
  0.700216348380E+01  0.734670550676E+01  0.770545685606E+01  0.807875708754E+01  0.846692990092E+01
  0.887028016600E+01  0.928909072523E+01  0.972361896855E+01  0.101740931775E+02  0.106407086376E+02
  0.111236235205E+02  0.116229545387E+02  0.121387723800E+02  0.126710969304E+02  0.132198923000E+02
  0.137850616670E+02  0.143664419631E+02  0.149637984263E+02  0.155768190528E+02  0.162051089863E+02
  0.168481848885E+02  0.175054693416E+02  0.181762853424E+02  0.188598509515E+02  0.195552741747E+02
  0.202615481558E+02  0.209775467745E+02  0.217020207469E+02  0.224335943382E+02  0.231707628040E+02
  0.239118906852E+02  0.246552110898E+02  0.253988261005E+02  0.261407084556E+02  0.268787046510E+02
  0.276105396196E+02  0.283338231408E+02  0.290460581345E+02  0.297446509877E+02  0.304269240580E+02
  0.310901304831E+02  0.317314714148E+02  0.323481157728E+02  0.329372225940E+02  0.334959660177E+02
  0.340215629172E+02  0.345113031437E+02  0.349625823020E+02  0.353729369240E+02  0.357400818462E+02
  0.360619495297E+02  0.363367309915E+02  0.365629179387E+02  0.367393456130E+02  0.368652357739E+02
  0.369402391566E+02  0.369644766587E+02  0.369385784233E+02  0.368637199053E+02  0.367416539355E+02
  0.365747377320E+02  0.363659537590E+02  0.361189232985E+02  0.358379115863E+02  0.355278233755E+02
  0.351941878275E+02  0.348431316988E+02  0.344813399001E+02  0.341160026398E+02  0.337547485497E+02
  0.334055634091E+02  0.330766943495E+02  0.327765397213E+02  0.325135251494E+02  0.322959666782E+02
  0.321319223164E+02  0.320290337228E+02  0.319943602291E+02  0.320342078632E+02  0.321539565030E+02
  0.323578887433E+02  0.326490245095E+02  0.330289658182E+02  0.334977564082E+02  0.340537611795E+02
  0.346935704802E+02  0.354119342445E+02  0.362017307999E+02  0.370539748071E+02  0.379578682618E+02
  0.389008977677E+02  0.398689803878E+02  0.408466593077E+02  0.418173493056E+02  0.427636306386E+02
  0.436675884204E+02  0.445111929267E+02  0.452767145384E+02  0.459471652926E+02  0.465067572946E+02
  0.469413666315E+02  0.472389899757E+02  0.473901798564E+02  0.473884436795E+02  0.472305910710E+02
  0.469170140838E+02  0.464518853095E+02  0.458432600388E+02  0.451030703640E+02  0.442470015372E+02
  0.432942439936E+02  0.422671181860E+02  0.411905736888E+02  0.400915688034E+02  0.389983419737E+02
  0.379395915016E+02  0.369435850887E+02  0.360372253652E+02  0.352451015301E+02  0.345885603056E+02
  0.340848314476E+02  0.337462439811E+02  0.335795691073E+02  0.335855243305E+02  0.337584705435E+02
  0.340863293974E+02  0.345507414849E+02  0.351274754805E+02  0.357870854083E+02  0.364957989439E+02
  0.372166085321E+02  0.379105294290E+02  0.385379825338E+02  0.390602530496E+02  0.394409689854E+02
  0.396475381715E+02  0.396524804857E+02  0.394345940330E+02  0.389798997738E+02  0.382823179079E+02
  0.373440404326E+02  0.361755771443E+02  0.347954663692E+02  0.332296563729E+02  0.315105781306E+02
  0.296759443679E+02  0.277673229396E+02  0.258285441323E+02  0.239040108190E+02  0.220369869679E+02
  0.202679431737E+02  0.186330369117E+02  0.171627993069E+02  0.158810886450E+02  0.148043528309E+02
  0.139412196154E+02  0.132924080074E+02  0.128509364528E+02  0.126026074124E+02  0.125267773768E+02
  0.125974490356E+02  0.127846747537E+02  0.130561263528E+02  0.133786286614E+02  0.137195546097E+02
  0.140480742574E+02  0.143362530056E+02  0.145599703211E+02  0.146996220890E+02  0.147405764615E+02
  0.146733685645E+02  0.144936391266E+02  0.142018409837E+02  0.138027517689E+02  0.133048396788E+02
  0.127195325073E+02  0.120604392155E+02  0.113425692234E+02  0.105815883237E+02  0.979314245642E+01
  0.899227237266E+01  0.819293396061E+01  0.740763146450E+01  0.664716393998E+01  0.592047962095E+01
  0.523462813851E+01  0.459479703579E+01  0.400441661006E+01  0.346531600948E+01  0.297791384414E+01
  0.254142839036E+01  0.215409535195E+01  0.181338421943E+01  0.151620629667E+01  0.125910789749E+01
  0.103844194074E+01  0.850512080755E+00  0.691686237736E+00  0.558480520079E+00  0.447617301650E+00
  0.356062471017E+00  0.281046514009E+00  0.220073208628E+00  0.170918867276E+00  0.131624444820E+00
  0.100482401813E+00  0.760198898456E-01  0.569795590293E-01  0.422990543126E-01  0.310900617912E-01
  0.226175869084E-01  0.162799906261E-01  0.115901759068E-01  0.815820110462E-02  0.567549763913E-02
  0.390078454306E-02  0.264770115841E-02  0.177412079775E-02  0.117306208141E-02  0.765080445262E-03
  0.491999246204E-03  0.311826960911E-03  0.194702818594E-03  0.119716255156E-03  0.724541308618E-04
  0.431420961064E-04  0.252613510421E-04  0.145380742770E-04  0.821896317955E-05  0.456181840946E-05
  0.248431288585E-05  0.132661236197E-05  0.694159800268E-06  0.355670513414E-06  0.178317068159E-06
  0.874113874353E-07  0.418636948514E-07  0.195730256193E-07  0.892644104913E-08  0.396771730934E-08
  0.171743356695E-08  0.723307895839E-09  0.296134731918E-09  0.117757347864E-09  0.454379493191E-10
  0.169969055246E-10  0.615768887289E-11  0.215836884729E-11  0.731211508945E-12  0.239168756792E-12
  0.754447530120E-13  0.229255410648E-13  0.670288659003E-14  0.188331914047E-14  0.507873319159E-15
  0.131276477334E-15
 kinetic energy-density
  0.149003659908E+06  0.148916001317E+06  0.148847312823E+06  0.148798089126E+06  0.148768838189E+06
  0.148760081722E+06  0.148772356231E+06  0.148806214051E+06  0.148862224386E+06  0.148940974325E+06
  0.149043070384E+06  0.149169139658E+06  0.149319831200E+06  0.149495817653E+06  0.149697796822E+06
  0.149926492883E+06  0.150182658607E+06  0.150467076977E+06  0.150780562258E+06  0.151123963791E+06
  0.151498164362E+06  0.151904086002E+06  0.152342689668E+06  0.152814977091E+06  0.153321993567E+06
  0.153864829773E+06  0.154444623522E+06  0.155062561025E+06  0.155719880964E+06  0.156417873988E+06
  0.157157887217E+06  0.157941324147E+06  0.158769648729E+06  0.159644385938E+06  0.160567125384E+06
  0.161539523111E+06  0.162563303620E+06  0.163640263430E+06  0.164772272826E+06  0.165961279020E+06
  0.167209309245E+06  0.168518473342E+06  0.169890967338E+06  0.171329076550E+06  0.172835179216E+06
  0.174411750106E+06  0.176061364320E+06  0.177786701334E+06  0.179590549140E+06  0.181475808598E+06
  0.183445497963E+06  0.185502757572E+06  0.187650854720E+06  0.189893188706E+06  0.192233296045E+06
  0.194674855853E+06  0.197221695391E+06  0.199877795771E+06  0.202647297799E+06  0.205534507977E+06
  0.208543904626E+06  0.211680144139E+06  0.214948067354E+06  0.218352705911E+06  0.221899288941E+06
  0.225593249502E+06  0.229440231290E+06  0.233446095222E+06  0.237616926053E+06  0.241959038993E+06
  0.246478986072E+06  0.251183562607E+06  0.256079813380E+06  0.261175038559E+06  0.266476799428E+06
  0.271992923784E+06  0.277731510819E+06  0.283700935848E+06  0.289909853976E+06  0.296367203738E+06
  0.303082209445E+06  0.310064383062E+06  0.317323525135E+06  0.324869724373E+06  0.332713356278E+06
  0.340865080485E+06  0.349335836229E+06  0.358136836725E+06  0.367279561169E+06  0.376775745084E+06
  0.386637368156E+06  0.396876639955E+06  0.407505982709E+06  0.418538011240E+06  0.429985509769E+06
  0.441861405387E+06  0.454178737507E+06  0.466950623685E+06  0.480190220835E+06  0.493910681972E+06
  0.508125107985E+06  0.522846494003E+06  0.538087670410E+06  0.553861237561E+06  0.570179494269E+06
  0.587054360194E+06  0.604497289924E+06  0.622519181439E+06  0.641130275355E+06  0.660340047439E+06
  0.680157091878E+06  0.700588997338E+06  0.721642212950E+06  0.743321906722E+06  0.765631814114E+06
  0.788574078761E+06  0.812149082798E+06  0.836355270146E+06  0.861188959872E+06  0.886644152336E+06
  0.912712327254E+06  0.939382234581E+06  0.966639679589E+06  0.994467302123E+06  0.102284435215E+07
  0.105174646207E+07  0.108114541813E+07  0.111100893213E+07  0.114130041588E+07  0.117197876062E+07
  0.120299812376E+07  0.123430772639E+07  0.126585166384E+07  0.129756873373E+07  0.132939228454E+07
  0.136125008899E+07  0.139306424649E+07  0.142475111934E+07  0.145622130707E+07  0.148737966451E+07
  0.151812536795E+07  0.154835203526E+07  0.157794790482E+07  0.160679607857E+07  0.163477483424E+07
  0.166175801167E+07  0.168761547753E+07  0.171221367276E+07  0.173541624593E+07  0.175708477539E+07
  0.177707958202E+07  0.179526063336E+07  0.181148853862E+07  0.182562563297E+07  0.183753714752E+07
  0.184709246009E+07  0.185416641990E+07  0.185864073708E+07  0.186040542619E+07  0.185936029045E+07
  0.185541643121E+07  0.184849776494E+07  0.183854252784E+07  0.182550474593E+07  0.180935564664E+07
  0.179008498605E+07  0.176770226475E+07  0.174223780391E+07  0.171374365304E+07  0.168229430067E+07
  0.164798715999E+07  0.161094280285E+07  0.157130491778E+07  0.152923997058E+07  0.148493654959E+07
  0.143860438229E+07  0.139047301445E+07  0.134079014853E+07  0.128981964305E+07  0.123783918065E+07
  0.118513761812E+07  0.113201203849E+07  0.107876453454E+07  0.102569875379E+07  0.973116272756E+06
  0.921312836845E+06  0.870574556382E+06  0.821174130499E+06  0.773367181275E+06  0.727388775831E+06
  0.683450207230E+06  0.641736096963E+06  0.602401874625E+06  0.565571684627E+06  0.531336764933E+06
  0.499754337970E+06  0.470847048189E+06  0.444602973504E+06  0.420976228674E+06  0.399888167498E+06
  0.381229177847E+06  0.364861049559E+06  0.350619881052E+06  0.338319476367E+06  0.327755171338E+06
  0.318708015759E+06  0.310949228330E+06  0.304244832874E+06  0.298360378161E+06  0.293065639255E+06
  0.288139196368E+06  0.283372786846E+06  0.278575328228E+06  0.273576514262E+06  0.268229892553E+06
  0.262415341346E+06  0.256040874677E+06  0.249043719892E+06  0.241390629023E+06  0.233077406377E+06
  0.224127657538E+06  0.214590789250E+06  0.204539312992E+06  0.194065526386E+06  0.183277664670E+06
  0.172295632064E+06  0.161246442950E+06  0.150259528771E+06  0.139462089753E+06  0.128974697416E+06
  0.118907324094E+06  0.109355989306E+06  0.100400101126E+06  0.921005632813E+05  0.844986377164E+05
  0.776155491188E+05  0.714528193377E+05  0.659933135000E+05  0.612029532432E+05  0.570330163957E+05
  0.534229088460E+05  0.503032684872E+05  0.475992451219E+05  0.452337952574E+05  0.431308372862E+05
  0.412181290634E+05  0.394297540804E+05  0.377081311784E+05  0.360054934808E+05  0.342848124018E+05
  0.325201703405E+05  0.306966095867E+05  0.288095042740E+05  0.268635174898E+05  0.248712177551E+05
  0.228514405273E+05  0.208274924090E+05  0.188253085844E+05  0.168716818148E+05  0.149926737224E+05
  0.132122764408E+05  0.115513173806E+05  0.100265419892E+05  0.864984080585E+04  0.742774099184E+04
  0.636138914847E+04  0.544711550185E+04  0.467731236769E+04  0.404127035444E+04  0.352589904066E+04
  0.311644117672E+04  0.279721249480E+04  0.255232662733E+04  0.236635660153E+04  0.222489968456E+04
  0.211502441752E+04  0.202558670572E+04  0.194741032184E+04  0.187333717729E+04  0.179816222651E+04
  0.171847492771E+04  0.163243294684E+04  0.153949447027E+04  0.144013348533E+04  0.133555899005E+04
  0.122745409223E+04  0.111774680955E+04  0.100841895323E+04  0.901356191013E+03  0.798238832990E+03
  0.700470790182E+03  0.609142312352E+03  0.525021228796E+03  0.448566625816E+03  0.379958509755E+03
  0.319137049903E+03  0.265845755763E+03  0.219674552465E+03  0.180100812931E+03  0.146527947102E+03
  0.118321253712E+03  0.948396930198E+02  0.754617491739E+02  0.596039806971E+02  0.467324809422E+02
  0.363684915030E+02  0.280897972546E+02  0.215293169298E+02  0.163719271043E+02  0.123502390487E+02
  0.923982943612E+01  0.685428128723E+01  0.504028853278E+01  0.367299844940E+01  0.265170374197E+01
  0.189594741291E+01  0.134206695079E+01  0.940178031077E+00  0.651579934444E+00  0.446553418149E+00
  0.302515153430E+00  0.202489786031E+00  0.133860125507E+00  0.873571136826E-01  0.562534989331E-01
  0.357281127278E-01  0.223710127734E-01  0.138033025026E-01  0.838898461567E-02  0.501962441503E-02
  0.295577917947E-02  0.171202342300E-02  0.974931303261E-03  0.545560957637E-03  0.299834718324E-03
  0.161747744379E-03  0.855939378565E-04  0.444026575210E-04  0.225647840869E-04  0.112250526099E-04
  0.546191412295E-05  0.259748321287E-05  0.120629684173E-05  0.546617155311E-06  0.241472253437E-06
  0.103902811948E-06  0.435089491570E-07  0.177145355555E-07  0.700619450032E-08  0.268923567525E-08
  0.100081379389E-08  0.360768160862E-09  0.125838769409E-09  0.424287125975E-10  0.138133197755E-10
  0.433758205498E-11  0.131223430131E-11  0.382010148343E-12  0.106882453632E-12  0.287048798035E-13
  0.739015552586E-14
 mkinetic energy-density pseudized
  0.290534535310E-05  0.309736659500E-05  0.330207898117E-05  0.352032129972E-05  0.375298777632E-05
  0.400103173812E-05  0.426546951997E-05  0.454738462870E-05  0.484793218271E-05  0.516834364493E-05
  0.550993186863E-05  0.587409647668E-05  0.626232959639E-05  0.667622197330E-05  0.711746948914E-05
  0.758788011052E-05  0.808938129686E-05  0.862402789800E-05  0.919401057368E-05  0.980166476959E-05
  0.104494802866E-04  0.111401114824E-04  0.118763881476E-04  0.126613271003E-04  0.134981445473E-04
  0.143902692623E-04  0.153413566347E-04  0.163553036472E-04  0.174362648435E-04  0.185886693508E-04
  0.198172390279E-04  0.211270078125E-04  0.225233423470E-04  0.240119639679E-04  0.255989721486E-04
  0.272908694909E-04  0.290945883688E-04  0.310175193334E-04  0.330675413947E-04  0.352530543049E-04
  0.375830129756E-04  0.400669641694E-04  0.427150856170E-04  0.455382277187E-04  0.485479580035E-04
  0.517566085250E-04  0.551773263910E-04  0.588241276321E-04  0.627119546307E-04  0.668567373458E-04
  0.712754585840E-04  0.759862235845E-04  0.810083342032E-04  0.863623679997E-04  0.920702625511E-04
  0.981554053388E-04  0.104642729575E-03  0.111558816366E-03  0.118932003619E-03  0.126792502159E-03
  0.135172519512E-03  0.144106391868E-03  0.153630724773E-03  0.163784543110E-03  0.174609451005E-03
  0.186149802286E-03  0.198452882222E-03  0.211569101263E-03  0.225552201593E-03  0.240459477326E-03
  0.256352009263E-03  0.273294915157E-03  0.291357616524E-03  0.310614123084E-03  0.331143336004E-03
  0.353029371179E-03  0.376361903882E-03  0.401236536190E-03  0.427755188692E-03  0.456026518093E-03
  0.486166362404E-03  0.518298215565E-03  0.552553733434E-03  0.589073273211E-03  0.628006468520E-03
  0.669512842490E-03  0.713762461359E-03  0.760936631271E-03  0.811228641126E-03  0.864844554518E-03
  0.922004054016E-03  0.982941341237E-03  0.104790609641E-02  0.111716450133E-02  0.119100032996E-02
  0.126971611106E-02  0.135363436767E-02  0.144309893853E-02  0.153847638674E-02  0.164015750163E-02
  0.174855889977E-02  0.186412473186E-02  0.198732850235E-02  0.211867500934E-02  0.225870241269E-02
  0.240798443873E-02  0.256713273069E-02  0.273679935448E-02  0.291767946994E-02  0.311051417873E-02
  0.331609356027E-02  0.353525990837E-02  0.376891118165E-02  0.401800468199E-02  0.428356097597E-02
  0.456666807539E-02  0.486848589404E-02  0.519025099887E-02  0.553328167500E-02  0.589898332545E-02
  0.628885422743E-02  0.670449166899E-02  0.714759849095E-02  0.761999006103E-02  0.812360170851E-02
  0.866049665004E-02  0.923287443880E-02  0.984307997177E-02  0.104936130917E-01  0.111871388232E-01
  0.119264982849E-01  0.127147203214E-01  0.135550339045E-01  0.144508813514E-01  0.154059324174E-01
  0.164240993167E-01  0.175095527367E-01  0.186667389075E-01  0.199003977988E-01  0.212155825168E-01
  0.226176799815E-01  0.241124329674E-01  0.257059635984E-01  0.274047983917E-01  0.292158949537E-01
  0.311466704354E-01  0.332050318641E-01  0.353994084736E-01  0.377387861656E-01  0.402327442405E-01
  0.428914945484E-01  0.457259232185E-01  0.487476351347E-01  0.519690013403E-01  0.554032095604E-01
  0.590643180494E-01  0.629673129786E-01  0.671281695973E-01  0.715639174125E-01  0.762927096515E-01
  0.813338972853E-01  0.867081079108E-01  0.924373298088E-01  0.985450015136E-01  0.105056107254E+00
  0.111997278646E+00  0.119396903043E+00  0.127285238973E+00  0.135694539128E+00  0.144659181382E+00
  0.154215808369E+00  0.164403476162E+00  0.175263812640E+00  0.186841186169E+00  0.199182885254E+00
  0.212339309865E+00  0.226364175175E+00  0.241314728509E+00  0.257251980335E+00  0.274240950188E+00
  0.292350928463E+00  0.311655755082E+00  0.332234116087E+00  0.354169859274E+00  0.377552330058E+00
  0.402476728809E+00  0.429044490995E+00  0.457363691512E+00  0.487549474682E+00  0.519724511471E+00
  0.554019485564E+00  0.590573610009E+00  0.629535176257E+00  0.671062137483E+00  0.715322728196E+00
  0.762496122216E+00  0.812773131213E+00  0.866356946091E+00  0.923463923593E+00  0.984324420608E+00
  0.104918367875E+01  0.111830276186E+01  0.119195954924E+01  0.127044978735E+01  0.135408820297E+01
  0.144320968073E+01  0.153817050806E+01  0.163934969062E+01  0.174715034126E+01  0.186200114549E+01
  0.198435790667E+01  0.211470517364E+01  0.225355795380E+01  0.240146351417E+01  0.255900327300E+01
  0.272679478401E+01  0.290549381510E+01  0.309579652294E+01  0.329844172413E+01  0.351421326320E+01
  0.374394247673E+01  0.398851075193E+01  0.424885217699E+01  0.452595627899E+01  0.482087084383E+01
  0.513470481043E+01  0.546863122974E+01  0.582389027615E+01  0.620179229655E+01  0.660372087830E+01
  0.703113591429E+01  0.748557663833E+01  0.796866459942E+01  0.848210653778E+01  0.902769711886E+01
  0.960732147459E+01  0.102229574924E+02  0.108766777838E+02  0.115706512532E+02  0.123071441765E+02
  0.130885206849E+02  0.139172425370E+02  0.147958680412E+02  0.157270499795E+02  0.167135323556E+02
  0.177581457759E+02  0.188638012425E+02  0.200334821130E+02  0.212702339560E+02  0.225771519951E+02
  0.239573658072E+02  0.254140209035E+02  0.269502567847E+02  0.285691810267E+02  0.302738389123E+02
  0.320671780868E+02  0.339520076793E+02  0.359309512919E+02  0.380063932329E+02  0.401804173395E+02
  0.424547377200E+02  0.448306207409E+02  0.473087975900E+02  0.498893667791E+02  0.525716860045E+02
  0.553542528666E+02  0.582345740823E+02  0.612090229928E+02  0.642726854086E+02  0.674191941342E+02
  0.706405529071E+02  0.739269509674E+02  0.772665700798E+02  0.806453865547E+02  0.840469716965E+02
  0.874522951434E+02  0.908395367823E+02  0.941839143285E+02  0.974575352622E+02  0.100629283606E+03
  0.103664754007E+03  0.106526247709E+03  0.109172847225E+03  0.111560588768E+03  0.113642753646E+03
  0.115370301712E+03  0.116692471387E+03  0.117557571419E+03  0.117913989076E+03  0.117711437434E+03
  0.116902460223E+03  0.115444205771E+03  0.113300471071E+03  0.110444002143E+03  0.106859016775E+03
  0.102543889472E+03  0.975139053090E+02  0.918039487718E+02  0.854709454817E+02  0.785958194003E+02
  0.712846672921E+02  0.636687887139E+02  0.559031484126E+02  0.481627958934E+02  0.406367342128E+02
  0.335187303208E+02  0.269946099555E+02  0.212257023759E+02  0.163283186214E+02  0.123494878385E+02
  0.923982943612E+01  0.685428128723E+01  0.504028853278E+01  0.367299844940E+01  0.265170374197E+01
  0.189594741291E+01  0.134206695079E+01  0.940178031077E+00  0.651579934444E+00  0.446553418149E+00
  0.302515153430E+00  0.202489786031E+00  0.133860125507E+00  0.873571136826E-01  0.562534989331E-01
  0.357281127278E-01  0.223710127734E-01  0.138033025026E-01  0.838898461567E-02  0.501962441503E-02
  0.295577917947E-02  0.171202342300E-02  0.974931303261E-03  0.545560957637E-03  0.299834718324E-03
  0.161747744379E-03  0.855939378565E-04  0.444026575210E-04  0.225647840869E-04  0.112250526099E-04
  0.546191412295E-05  0.259748321287E-05  0.120629684173E-05  0.546617155311E-06  0.241472253437E-06
  0.103902811948E-06  0.435089491570E-07  0.177145355555E-07  0.700619450032E-08  0.268923567525E-08
  0.100081379389E-08  0.360768160862E-09  0.125838769409E-09  0.424287125975E-10  0.138133197755E-10
  0.433758205498E-11  0.131223430131E-11  0.382010148343E-12  0.106882453632E-12  0.287048798035E-13
  0.739015552586E-14
 local pseudopotential core
 -0.203216352265E+03 -0.203214877728E+03 -0.203213449627E+03 -0.203212066501E+03 -0.203210726932E+03
 -0.203209429551E+03 -0.203208173026E+03 -0.203206956072E+03 -0.203205777442E+03 -0.203204635929E+03
 -0.203203530365E+03 -0.203202459616E+03 -0.203201422587E+03 -0.203200418215E+03 -0.203199445471E+03
 -0.203198503360E+03 -0.203197590916E+03 -0.203196707205E+03 -0.203195851321E+03 -0.203195022389E+03
 -0.203194219559E+03 -0.203193442008E+03 -0.203192688941E+03 -0.203191959586E+03 -0.203191253196E+03
 -0.203190569047E+03 -0.203189906439E+03 -0.203189264693E+03 -0.203188643151E+03 -0.203188041177E+03
 -0.203187458154E+03 -0.203186893485E+03 -0.203186346590E+03 -0.203185816911E+03 -0.203185303903E+03
 -0.203184807042E+03 -0.203184325819E+03 -0.203183859739E+03 -0.203183408326E+03 -0.203182971116E+03
 -0.203182547662E+03 -0.203182137530E+03 -0.203181740298E+03 -0.203181355560E+03 -0.203180982921E+03
 -0.203180621998E+03 -0.203180272423E+03 -0.203179933835E+03 -0.203179605887E+03 -0.203179288244E+03
 -0.203178980578E+03 -0.203178682574E+03 -0.203178393925E+03 -0.203178114335E+03 -0.203177843518E+03
 -0.203177581193E+03 -0.203177327092E+03 -0.203177080952E+03 -0.203176842521E+03 -0.203176611553E+03
 -0.203176387809E+03 -0.203176171059E+03 -0.203175961080E+03 -0.203175757654E+03 -0.203175560570E+03
 -0.203175369626E+03 -0.203175184623E+03 -0.203175005369E+03 -0.203174831678E+03 -0.203174663370E+03
 -0.203174500268E+03 -0.203174342204E+03 -0.203174189011E+03 -0.203174040530E+03 -0.203173896604E+03
 -0.203173757083E+03 -0.203173621818E+03 -0.203173490666E+03 -0.203173363489E+03 -0.203173240152E+03
 -0.203173120521E+03 -0.203173004468E+03 -0.203172891870E+03 -0.203172782602E+03 -0.203172676547E+03
 -0.203172573588E+03 -0.203172473611E+03 -0.203172376505E+03 -0.203172282162E+03 -0.203172190474E+03
 -0.203172101338E+03 -0.203172014651E+03 -0.203171930312E+03 -0.203171848221E+03 -0.203171768282E+03
 -0.203171690397E+03 -0.203171614472E+03 -0.203171540412E+03 -0.203171468123E+03 -0.203171397512E+03
 -0.203171328488E+03 -0.203171260959E+03 -0.203171194831E+03 -0.203171130013E+03 -0.203171066414E+03
 -0.203171003939E+03 -0.203170942496E+03 -0.203170881990E+03 -0.203170822325E+03 -0.203170763406E+03
 -0.203170705133E+03 -0.203170647407E+03 -0.203170590124E+03 -0.203170533181E+03 -0.203170476469E+03
 -0.203170419878E+03 -0.203170363294E+03 -0.203170306600E+03 -0.203170249673E+03 -0.203170192389E+03
 -0.203170134616E+03 -0.203170076218E+03 -0.203170017053E+03 -0.203169956972E+03 -0.203169895822E+03
 -0.203169833440E+03 -0.203169769656E+03 -0.203169704292E+03 -0.203169637161E+03 -0.203169568064E+03
 -0.203169496794E+03 -0.203169423133E+03 -0.203169346850E+03 -0.203169267699E+03 -0.203169185424E+03
 -0.203169099750E+03 -0.203169010390E+03 -0.203168917038E+03 -0.203168819369E+03 -0.203168717039E+03
 -0.203168609684E+03 -0.203168496917E+03 -0.203168378328E+03 -0.203168253479E+03 -0.203168121908E+03
 -0.203167983122E+03 -0.203167836596E+03 -0.203167681775E+03 -0.203167518067E+03 -0.203167344840E+03
 -0.203167161426E+03 -0.203166967110E+03 -0.203166761133E+03 -0.203166542688E+03 -0.203166310913E+03
 -0.203166064892E+03 -0.203165803650E+03 -0.203165526147E+03 -0.203165231276E+03 -0.203164917858E+03
 -0.203164584636E+03 -0.203164230272E+03 -0.203163853340E+03 -0.203163452320E+03 -0.203163025593E+03
 -0.203162571432E+03 -0.203162088000E+03 -0.203161573335E+03 -0.203161025348E+03 -0.203160441813E+03
 -0.203159820356E+03 -0.203159158447E+03 -0.203158453389E+03 -0.203157702306E+03 -0.203156902134E+03
 -0.203156049604E+03 -0.203155141235E+03 -0.203154173311E+03 -0.203153141873E+03 -0.203152042699E+03
 -0.203150871288E+03 -0.203149622839E+03 -0.203148292237E+03 -0.203146874022E+03 -0.203145362377E+03
 -0.203143751096E+03 -0.203142033561E+03 -0.203140202717E+03 -0.203138251038E+03 -0.203136170497E+03
 -0.203133952534E+03 -0.203131588021E+03 -0.203129067219E+03 -0.203126379742E+03 -0.203123514512E+03
 -0.203120459710E+03 -0.203117202730E+03 -0.203113730122E+03 -0.203110027538E+03 -0.203106079671E+03
 -0.203101870188E+03 -0.203097381659E+03 -0.203092595489E+03 -0.203087491833E+03 -0.203082049509E+03
 -0.203076245914E+03 -0.203070056920E+03 -0.203063456773E+03 -0.203056417977E+03 -0.203048911179E+03
 -0.203040905038E+03 -0.203032366085E+03 -0.203023258580E+03 -0.203013544347E+03 -0.203003182612E+03
 -0.202992129812E+03 -0.202980339404E+03 -0.202967761651E+03 -0.202954343401E+03 -0.202940027836E+03
 -0.202924754215E+03 -0.202908457590E+03 -0.202891068503E+03 -0.202872512660E+03 -0.202852710576E+03
 -0.202831577199E+03 -0.202809021494E+03 -0.202784946005E+03 -0.202759246378E+03 -0.202731810839E+03
 -0.202702519638E+03 -0.202671244444E+03 -0.202637847690E+03 -0.202602181862E+03 -0.202564088731E+03
 -0.202523398514E+03 -0.202479928967E+03 -0.202433484403E+03 -0.202383854609E+03 -0.202330813685E+03
 -0.202274118767E+03 -0.202213508632E+03 -0.202148702185E+03 -0.202079396798E+03 -0.202005266491E+03
 -0.201925959940E+03 -0.201841098302E+03 -0.201750272807E+03 -0.201653042132E+03 -0.201548929492E+03
 -0.201437419453E+03 -0.201317954395E+03 -0.201189930621E+03 -0.201052694046E+03 -0.200905535424E+03
 -0.200747685056E+03 -0.200578306918E+03 -0.200396492140E+03 -0.200201251749E+03 -0.199991508605E+03
 -0.199766088412E+03 -0.199523709715E+03 -0.199262972752E+03 -0.198982347036E+03 -0.198680157523E+03
 -0.198354569216E+03 -0.198003570030E+03 -0.197624951758E+03 -0.197216288942E+03 -0.196774915466E+03
 -0.196297898674E+03 -0.195782010828E+03 -0.195223697726E+03 -0.194619044318E+03 -0.193963737191E+03
 -0.193253023850E+03 -0.192481668776E+03 -0.191643906368E+03 -0.190733390999E+03 -0.189743144606E+03
 -0.188665502539E+03 -0.187492058700E+03 -0.186213611542E+03 -0.184820113155E+03 -0.183300624523E+03
 -0.181643281301E+03 -0.179835276017E+03 -0.177862864743E+03 -0.175711409102E+03 -0.173365468073E+03
 -0.170808958741E+03 -0.168025410900E+03 -0.164998347463E+03 -0.161711830693E+03 -0.158151222940E+03
 -0.154304218577E+03 -0.150162208982E+03 -0.145722040828E+03 -0.140988213537E+03 -0.135975525890E+03
 -0.130712113265E+03 -0.125242704092E+03 -0.119631758725E+03 -0.113965940294E+03 -0.108355134300E+03
 -0.102931049364E+03 -0.978424074930E+02 -0.932460065198E+02 -0.892936167087E+02 -0.861157416559E+02
 -0.838017422558E+02 -0.822541871627E+02 -0.796459896145E+02 -0.771299726096E+02 -0.746953783687E+02
 -0.723390630645E+02 -0.700581239640E+02 -0.678498597756E+02 -0.657117392302E+02 -0.636413758368E+02
 -0.616365077125E+02 -0.596949802660E+02 -0.578147340918E+02 -0.559937942315E+02 -0.542302619667E+02
 -0.525223083058E+02 -0.508681688386E+02 -0.492661394565E+02 -0.477145729281E+02 -0.462118760475E+02
 -0.447565072012E+02 -0.433469742617E+02 -0.419818327345E+02 -0.406596840132E+02 -0.393791738320E+02
 -0.381389907726E+02 -0.369378648150E+02 -0.357745660208E+02 -0.346479032127E+02 -0.335567227238E+02
 -0.324999072001E+02 -0.314763744484E+02 -0.304850763248E+02 -0.295249976676E+02 -0.285951552648E+02
 -0.276945968550E+02 -0.268224001602E+02 -0.259776719464E+02 -0.251595471125E+02 -0.243671878060E+02
 -0.235997825660E+02 -0.228565454922E+02 -0.221367154387E+02 -0.214395552347E+02 -0.207643509277E+02
 -0.201104110524E+02 -0.194770659216E+02 -0.188636669397E+02 -0.182695859382E+02 -0.176942145321E+02
 -0.171369634967E+02
 pspotential valence only
 -0.721375340499E+02 -0.721360595279E+02 -0.721346314437E+02 -0.721332483353E+02 -0.721319087861E+02
 -0.721306114244E+02 -0.721293549214E+02 -0.721281379902E+02 -0.721269593849E+02 -0.721258178984E+02
 -0.721247123619E+02 -0.721236416429E+02 -0.721226046452E+02 -0.721216003070E+02 -0.721206275993E+02
 -0.721196855263E+02 -0.721187731230E+02 -0.721178894556E+02 -0.721170336185E+02 -0.721162047356E+02
 -0.721154019582E+02 -0.721146244641E+02 -0.721138714571E+02 -0.721131421661E+02 -0.721124358442E+02
 -0.721117517683E+02 -0.721110892378E+02 -0.721104475743E+02 -0.721098261207E+02 -0.721092242405E+02
 -0.721086413176E+02 -0.721080767550E+02 -0.721075299745E+02 -0.721070004165E+02 -0.721064875385E+02
 -0.721059908156E+02 -0.721055097389E+02 -0.721050438162E+02 -0.721045925701E+02 -0.721041555388E+02
 -0.721037322747E+02 -0.721033223447E+02 -0.721029253289E+02 -0.721025408209E+02 -0.721021684272E+02
 -0.721018077666E+02 -0.721014584698E+02 -0.721011201793E+02 -0.721007925489E+02 -0.721004752433E+02
 -0.721001679377E+02 -0.720998703177E+02 -0.720995820786E+02 -0.720993029257E+02 -0.720990325733E+02
 -0.720987707449E+02 -0.720985171726E+02 -0.720982715971E+02 -0.720980337673E+02 -0.720978034400E+02
 -0.720975803799E+02 -0.720973643587E+02 -0.720971551559E+02 -0.720969525577E+02 -0.720967563571E+02
 -0.720965663539E+02 -0.720963823540E+02 -0.720962041696E+02 -0.720960316190E+02 -0.720958645263E+02
 -0.720957027210E+02 -0.720955460383E+02 -0.720953943187E+02 -0.720952474078E+02 -0.720951051562E+02
 -0.720949674192E+02 -0.720948340569E+02 -0.720947049341E+02 -0.720945799198E+02 -0.720944588873E+02
 -0.720943417144E+02 -0.720942282825E+02 -0.720941184772E+02 -0.720940121879E+02 -0.720939093076E+02
 -0.720938097331E+02 -0.720937133647E+02 -0.720936201059E+02 -0.720935298638E+02 -0.720934425487E+02
 -0.720933580739E+02 -0.720932763560E+02 -0.720931973146E+02 -0.720931208721E+02 -0.720930469540E+02
 -0.720929754885E+02 -0.720929064066E+02 -0.720928396420E+02 -0.720927751310E+02 -0.720927128128E+02
 -0.720926526288E+02 -0.720925945233E+02 -0.720925384428E+02 -0.720924843365E+02 -0.720924321559E+02
 -0.720923818551E+02 -0.720923333904E+02 -0.720922867207E+02 -0.720922418073E+02 -0.720921986137E+02
 -0.720921571060E+02 -0.720921172526E+02 -0.720920790243E+02 -0.720920423945E+02 -0.720920073387E+02
 -0.720919738354E+02 -0.720919418651E+02 -0.720919114112E+02 -0.720918824596E+02 -0.720918549989E+02
 -0.720918290205E+02 -0.720918045184E+02 -0.720917814896E+02 -0.720917599342E+02 -0.720917398551E+02
 -0.720917212586E+02 -0.720917041542E+02 -0.720916885547E+02 -0.720916744767E+02 -0.720916619403E+02
 -0.720916509695E+02 -0.720916415924E+02 -0.720916338412E+02 -0.720916277528E+02 -0.720916233685E+02
 -0.720916207345E+02 -0.720916199023E+02 -0.720916209288E+02 -0.720916238763E+02 -0.720916288136E+02
 -0.720916358157E+02 -0.720916449640E+02 -0.720916563476E+02 -0.720916700626E+02 -0.720916862134E+02
 -0.720917049128E+02 -0.720917262825E+02 -0.720917504537E+02 -0.720917775677E+02 -0.720918077767E+02
 -0.720918412439E+02 -0.720918781449E+02 -0.720919186680E+02 -0.720919630152E+02 -0.720920114028E+02
 -0.720920640629E+02 -0.720921212438E+02 -0.720921832110E+02 -0.720922502491E+02 -0.720923226620E+02
 -0.720924007749E+02 -0.720924849352E+02 -0.720925755142E+02 -0.720926729086E+02 -0.720927775421E+02
 -0.720928898670E+02 -0.720930103665E+02 -0.720931395562E+02 -0.720932779864E+02 -0.720934262445E+02
 -0.720935849572E+02 -0.720937547931E+02 -0.720939364656E+02 -0.720941307357E+02 -0.720943384148E+02
 -0.720945603686E+02 -0.720947975202E+02 -0.720950508537E+02 -0.720953214186E+02 -0.720956103339E+02
 -0.720959187925E+02 -0.720962480659E+02 -0.720965995097E+02 -0.720969745687E+02 -0.720973747828E+02
 -0.720978017932E+02 -0.720982573488E+02 -0.720987433135E+02 -0.720992616731E+02 -0.720998145435E+02
 -0.721004041792E+02 -0.721010329819E+02 -0.721017035100E+02 -0.721024184887E+02 -0.721031808207E+02
 -0.721039935974E+02 -0.721048601112E+02 -0.721057838675E+02 -0.721067685993E+02 -0.721078182806E+02
 -0.721089371421E+02 -0.721101296869E+02 -0.721114007080E+02 -0.721127553060E+02 -0.721141989083E+02
 -0.721157372893E+02 -0.721173765917E+02 -0.721191233490E+02 -0.721209845093E+02 -0.721229674605E+02
 -0.721250800565E+02 -0.721273306453E+02 -0.721297280983E+02 -0.721322818408E+02 -0.721350018849E+02
 -0.721378988629E+02 -0.721409840633E+02 -0.721442694679E+02 -0.721477677907E+02 -0.721514925187E+02
 -0.721554579538E+02 -0.721596792575E+02 -0.721641724961E+02 -0.721689546880E+02 -0.721740438530E+02
 -0.721794590625E+02 -0.721852204909E+02 -0.721913494690E+02 -0.721978685381E+02 -0.722048015044E+02
 -0.722121734944E+02 -0.722200110109E+02 -0.722283419876E+02 -0.722371958443E+02 -0.722466035397E+02
 -0.722565976228E+02 -0.722672122814E+02 -0.722784833863E+02 -0.722904485313E+02 -0.723031470660E+02
 -0.723166201211E+02 -0.723309106238E+02 -0.723460633006E+02 -0.723621246659E+02 -0.723791429919E+02
 -0.723971682578E+02 -0.724162520719E+02 -0.724364475635E+02 -0.724578092373E+02 -0.724803927838E+02
 -0.725042548372E+02 -0.725294526720E+02 -0.725560438258E+02 -0.725840856368E+02 -0.726136346803E+02
 -0.726447460878E+02 -0.726774727283E+02 -0.727118642310E+02 -0.727479658235E+02 -0.727858169590E+02
 -0.728254497005E+02 -0.728668868304E+02 -0.729101396477E+02 -0.729552054160E+02 -0.730020644215E+02
 -0.730506765999E+02 -0.731009776928E+02 -0.731528748928E+02 -0.732062419444E+02 -0.732609136685E+02
 -0.733166798925E+02 -0.733732787749E+02 -0.734303895319E+02 -0.734876245924E+02 -0.735445212312E+02
 -0.736005327590E+02 -0.736550193833E+02 -0.737072388882E+02 -0.737563373288E+02 -0.738013399761E+02
 -0.738411428011E+02 -0.738745048314E+02 -0.739000417658E+02 -0.739162212731E+02 -0.739213604444E+02
 -0.739136258978E+02 -0.738910370575E+02 -0.738514731387E+02 -0.737926843682E+02 -0.737123079518E+02
 -0.736078892681E+02 -0.734769087172E+02 -0.733168145883E+02 -0.731250622097E+02 -0.728991595196E+02
 -0.726367190017E+02 -0.723355156477E+02 -0.719935501770E+02 -0.716091160788E+02 -0.711808680258E+02
 -0.707078876826E+02 -0.701897407006E+02 -0.696265155729E+02 -0.690188309402E+02 -0.683677931956E+02
 -0.676748819418E+02 -0.669417395536E+02 -0.661698471187E+02 -0.653600871224E+02 -0.645122282229E+02
 -0.636216592383E+02 -0.625481781081E+02 -0.614905194584E+02 -0.604113479413E+02 -0.593074812913E+02
 -0.581831152644E+02 -0.570424263243E+02 -0.558894659953E+02 -0.547280355384E+02 -0.535615502132E+02
 -0.523929040586E+02 -0.512243580891E+02 -0.500574830563E+02 -0.488931829035E+02 -0.477318128070E+02
 -0.465734033122E+02 -0.454179321561E+02 -0.442656236161E+02 -0.431172024737E+02 -0.419740643563E+02
 -0.408383379134E+02 -0.397128371428E+02 -0.386009183468E+02 -0.375062645933E+02 -0.364326234901E+02
 -0.353835254153E+02 -0.343620115907E+02 -0.333704039126E+02 -0.324101478582E+02 -0.314817522179E+02
 -0.305848338172E+02 -0.297182553319E+02 -0.288803265764E+02 -0.280690305525E+02 -0.272822373697E+02
 -0.265178794522E+02 -0.257740751750E+02 -0.250492004252E+02 -0.243419158607E+02 -0.236511614089E+02
 -0.229761297923E+02 -0.223162290728E+02 -0.216710416130E+02 -0.210402843132E+02 -0.204237728893E+02
 -0.198213914386E+02 -0.192330675446E+02 -0.186587525921E+02 -0.180984066753E+02 -0.175519873834E+02
 -0.170194417606E+02
 core charge-density (pseudized)
  0.265647041995E-07  0.283204292070E-07  0.301921942897E-07  0.321876688143E-07  0.343150290341E-07
  0.365829915907E-07  0.390008492296E-07  0.415785088756E-07  0.443265322263E-07  0.472561790269E-07
  0.503794532062E-07  0.537091520614E-07  0.572589186935E-07  0.610432979087E-07  0.650777958142E-07
  0.693789433530E-07  0.739643640374E-07  0.788528461598E-07  0.840644197757E-07  0.896204387745E-07
  0.955436683754E-07  0.101858378405E-06  0.108590442741E-06  0.115767445326E-06  0.123418793193E-06
  0.131575836954E-06  0.140271999259E-06  0.149542911738E-06  0.159426561003E-06  0.169963444290E-06
  0.181196735393E-06  0.193172461565E-06  0.205939692107E-06  0.219550739431E-06  0.234061373395E-06
  0.249531049822E-06  0.266023154107E-06  0.283605260940E-06  0.302349411177E-06  0.322332407025E-06
  0.343636126731E-06  0.366347860064E-06  0.390560665980E-06  0.416373753919E-06  0.443892890303E-06
  0.473230831905E-06  0.504507787854E-06  0.537851912177E-06  0.573399828902E-06  0.611297191849E-06
  0.651699281438E-06  0.694771640927E-06  0.740690754705E-06  0.789644771419E-06  0.841834274888E-06
  0.897473105969E-06  0.956789238742E-06  0.102002571461E-05  0.108744163812E-05  0.115931323862E-05
  0.123593500207E-05  0.131762087765E-05  0.140470556412E-05  0.149754588123E-05  0.159652223171E-05
  0.170204015990E-05  0.181453201347E-05  0.193445871483E-05  0.206231164972E-05  0.219861468058E-05
  0.234392629300E-05  0.249884188401E-05  0.266399620162E-05  0.284006594559E-05  0.302777254009E-05
  0.322788508957E-05  0.344122353009E-05  0.366866198875E-05  0.391113236534E-05  0.416962815053E-05
  0.444520849652E-05  0.473900255669E-05  0.505221411199E-05  0.538612650320E-05  0.574210788906E-05
  0.612161685194E-05  0.652620837401E-05  0.695754020833E-05  0.741737967098E-05  0.790761088213E-05
  0.843024248558E-05  0.898741587854E-05  0.958141398521E-05  0.102146706103E-04  0.108897804104E-04
  0.116095095249E-04  0.123768069087E-04  0.131948164145E-04  0.140668896730E-04  0.149965998249E-04
  0.159877561596E-04  0.170444197220E-04  0.181709199502E-04  0.193718724127E-04  0.206521977177E-04
  0.220171416720E-04  0.234722967721E-04  0.250236251148E-04  0.266774828229E-04  0.284406460830E-04
  0.303203389060E-04  0.323242627198E-04  0.344606279185E-04  0.367381874958E-04  0.391662729007E-04
  0.417548322616E-04  0.445144711366E-04  0.474564959551E-04  0.505929603305E-04  0.539367144309E-04
  0.575014576126E-04  0.613017945297E-04  0.653532949504E-04  0.696725575242E-04  0.742772777607E-04
  0.791863204989E-04  0.844197971626E-04  0.899991481169E-04  0.959472304652E-04  0.102288411642E-03
  0.109048669187E-03  0.116255697106E-03  0.123939019257E-03  0.132130110216E-03  0.140862524127E-03
  0.150172032055E-03  0.160096768404E-03  0.170677387002E-03  0.181957227479E-03  0.193982492627E-03
  0.206802437466E-03  0.220469570775E-03  0.235039869919E-03  0.250573009845E-03  0.267132607179E-03
  0.284786480413E-03  0.303606927248E-03  0.323671020217E-03  0.345060921787E-03  0.367864220219E-03
  0.392174287558E-03  0.418090661197E-03  0.445719450559E-03  0.475173770555E-03  0.506574203567E-03
  0.540049291814E-03  0.575736062115E-03  0.613780585142E-03  0.654338571433E-03  0.697576006565E-03
  0.743669828032E-03  0.792808646571E-03  0.845193514804E-03  0.901038746301E-03  0.960572788323E-03
  0.102403915175E-02  0.109169740190E-02  0.116382421416E-02  0.124071449866E-02  0.132268259847E-02
  0.141006356595E-02  0.150321452246E-02  0.160251610662E-02  0.170837401697E-02  0.182122065491E-02
  0.194151687446E-02  0.206975384561E-02  0.220645503843E-02  0.235217833573E-02  0.250751828226E-02
  0.267310847918E-02  0.284962413284E-02  0.303778476764E-02  0.323835711307E-02  0.345215817590E-02
  0.368005850891E-02  0.392298568826E-02  0.418192801225E-02  0.445793843511E-02  0.475213874982E-02
  0.506572403521E-02  0.539996738288E-02  0.575622492077E-02  0.613594115061E-02  0.654065461771E-02
  0.697200393226E-02  0.743173416205E-02  0.792170361781E-02  0.844389105288E-02  0.900040330009E-02
  0.959348336935E-02  0.102255190307E-01  0.108990519078E-01  0.116167871085E-01  0.123816034185E-01
  0.131965640865E-01  0.140649282274E-01  0.149901628734E-01  0.159759556999E-01  0.170262284553E-01
  0.181451511232E-01  0.193371568432E-01  0.206069576178E-01  0.219595608303E-01  0.234002865966E-01
  0.249347859720E-01  0.265690600303E-01  0.283094798284E-01  0.301628072664E-01  0.321362168439E-01
  0.342373183101E-01  0.364741801934E-01  0.388553541873E-01  0.413899003580E-01  0.440874131238E-01
  0.469580479405E-01  0.500125486069E-01  0.532622750838E-01  0.567192316926E-01  0.603960955299E-01
  0.643062449007E-01  0.684637875339E-01  0.728835882979E-01  0.775812960840E-01  0.825733694659E-01
  0.878771006799E-01  0.935106373926E-01  0.994930016424E-01  0.105844105243E+00  0.112584760834E+00
  0.119736687640E+00  0.127322510877E+00  0.135365753578E+00  0.143890819473E+00  0.152922965355E+00
  0.162488261166E+00  0.172613535841E+00  0.183326306686E+00  0.194654689809E+00  0.206627288874E+00
  0.219273059105E+00  0.232621143192E+00  0.246700675402E+00  0.261540549832E+00  0.277169148446E+00
  0.293614024104E+00  0.310901533513E+00  0.329056414655E+00  0.348101302962E+00  0.368056180262E+00
  0.388937750332E+00  0.410758734836E+00  0.433527083463E+00  0.457245092325E+00  0.481908425141E+00
  0.507505032462E+00  0.534013965289E+00  0.561404080983E+00  0.589632641388E+00  0.618643805795E+00
  0.648367024812E+00  0.678715345482E+00  0.709583643367E+00  0.740846803782E+00  0.772357882204E+00
  0.803946283176E+00  0.835416007919E+00  0.866544033522E+00  0.897078900949E+00  0.926739605336E+00
  0.955214899907E+00  0.982163144126E+00  0.100721284702E+01  0.102996407720E+01  0.104999093104E+01
  0.106684526824E+01  0.108006193773E+01  0.108916572427E+01  0.109368024329E+01  0.109313899550E+01
  0.108709875740E+01  0.107515542468E+01  0.105696233403E+01  0.103225095971E+01  0.100085370401E+01
  0.962728269377E+00  0.917982805822E+00  0.866900665483E+00  0.809963164579E+00  0.747868255696E+00
  0.681542462310E+00  0.612142847477E+00  0.541045220615E+00  0.469814292528E+00  0.400151157867E+00
  0.333813435981E+00  0.272503789931E+00  0.217723558959E+00  0.170590102817E+00  0.131619407132E+00
  0.100482401813E+00  0.760198898456E-01  0.569795590293E-01  0.422990543126E-01  0.310900617912E-01
  0.226175869084E-01  0.162799906261E-01  0.115901759068E-01  0.815820110462E-02  0.567549763913E-02
  0.390078454306E-02  0.264770115841E-02  0.177412079775E-02  0.117306208141E-02  0.765080445262E-03
  0.491999246204E-03  0.311826960911E-03  0.194702818594E-03  0.119716255156E-03  0.724541308618E-04
  0.431420961064E-04  0.252613510421E-04  0.145380742770E-04  0.821896317955E-05  0.456181840946E-05
  0.248431288585E-05  0.132661236197E-05  0.694159800268E-06  0.355670513414E-06  0.178317068159E-06
  0.874113874353E-07  0.418636948514E-07  0.195730256193E-07  0.892644104913E-08  0.396771730934E-08
  0.171743356695E-08  0.723307895839E-09  0.296134731918E-09  0.117757347864E-09  0.454379493191E-10
  0.169969055246E-10  0.615768887289E-11  0.215836884729E-11  0.731211508945E-12  0.239168756792E-12
  0.754447530120E-13  0.229255410648E-13  0.670288659003E-14  0.188331914047E-14  0.507873319159E-15
  0.131276477334E-15
 pseudo wavefunction
  0.174942712791E-03  0.180631413340E-03  0.186505096234E-03  0.192569776638E-03  0.198831665314E-03
  0.205297174983E-03  0.211972926890E-03  0.218865757588E-03  0.225982725938E-03  0.233331120335E-03
  0.240918466176E-03  0.248752533566E-03  0.256841345272E-03  0.265193184944E-03  0.273816605592E-03
  0.282720438353E-03  0.291913801525E-03  0.301406109916E-03  0.311207084474E-03  0.321326762253E-03
  0.331775506683E-03  0.342564018188E-03  0.353703345144E-03  0.365204895192E-03  0.377080446918E-03
  0.389342161921E-03  0.402002597263E-03  0.415074718331E-03  0.428571912112E-03  0.442508000906E-03
  0.456897256478E-03  0.471754414674E-03  0.487094690514E-03  0.502933793770E-03  0.519287945056E-03
  0.536173892441E-03  0.553608928596E-03  0.571610908507E-03  0.590198267758E-03  0.609390041412E-03
  0.629205883501E-03  0.649666087157E-03  0.670791605392E-03  0.692604072558E-03  0.715125826496E-03
  0.738379931418E-03  0.762390201526E-03  0.787181225393E-03  0.812778391152E-03  0.839207912490E-03
  0.866496855495E-03  0.894673166370E-03  0.923765700058E-03  0.953804249786E-03  0.984819577576E-03
  0.101684344575E-02  0.104990864946E-02  0.108404905025E-02  0.111929961077E-02  0.115569643055E-02
  0.119327678298E-02  0.123207915347E-02  0.127214327887E-02  0.131351018817E-02  0.135622224450E-02
  0.140032318852E-02  0.144585818320E-02  0.149287386009E-02  0.154141836706E-02  0.159154141760E-02
  0.164329434175E-02  0.169673013862E-02  0.175190353071E-02  0.180887101993E-02  0.186769094543E-02
  0.192842354338E-02  0.199113100864E-02  0.205587755844E-02  0.212272949814E-02  0.219175528911E-02
  0.226302561888E-02  0.233661347346E-02  0.241259421212E-02  0.249104564454E-02  0.257204811048E-02
  0.265568456204E-02  0.274204064860E-02  0.283120480452E-02  0.292326833969E-02  0.301832553301E-02
  0.311647372891E-02  0.321781343707E-02  0.332244843526E-02  0.343048587562E-02  0.354203639437E-02
  0.365721422507E-02  0.377613731557E-02  0.389892744874E-02  0.402571036720E-02  0.415661590196E-02
  0.429177810540E-02  0.443133538845E-02  0.457543066228E-02  0.472421148460E-02  0.487783021067E-02
  0.503644414923E-02  0.520021572356E-02  0.536931263765E-02  0.554390804785E-02  0.572418074009E-02
  0.591031531281E-02  0.610250236586E-02  0.630093869552E-02  0.650582749585E-02  0.671737856660E-02
  0.693580852781E-02  0.716134104140E-02  0.739420703996E-02  0.763464496296E-02  0.788290100056E-02
  0.813922934543E-02  0.840389245261E-02  0.867716130788E-02  0.895931570477E-02  0.925064453059E-02
  0.955144606165E-02  0.986202826813E-02  0.101827091287E-01  0.105138169554E-01  0.108556907291E-01
  0.112086804455E-01  0.115731474726E-01  0.119494649198E-01  0.123380180184E-01  0.127392045150E-01
  0.131534350773E-01  0.135811337127E-01  0.140227382010E-01  0.144787005405E-01  0.149494874085E-01
  0.154355806372E-01  0.159374777041E-01  0.164556922383E-01  0.169907545436E-01  0.175432121378E-01
  0.181136303093E-01  0.187025926917E-01  0.193107018568E-01  0.199385799260E-01  0.205868692019E-01
  0.212562328194E-01  0.219473554180E-01  0.226609438348E-01  0.233977278197E-01  0.241584607737E-01
  0.249439205096E-01  0.257549100373E-01  0.265922583736E-01  0.274568213770E-01  0.283494826089E-01
  0.292711542220E-01  0.302227778755E-01  0.312053256792E-01  0.322198011665E-01  0.332672402974E-01
  0.343487124923E-01  0.354653216971E-01  0.366182074810E-01  0.378085461668E-01  0.390375519960E-01
  0.403064783285E-01  0.416166188771E-01  0.429693089799E-01  0.443659269086E-01  0.458078952159E-01
  0.472966821208E-01  0.488338029347E-01  0.504208215268E-01  0.520593518310E-01  0.537510593945E-01
  0.554976629691E-01  0.573009361446E-01  0.591627090270E-01  0.610848699591E-01  0.630693672864E-01
  0.651182111674E-01  0.672334754281E-01  0.694172994618E-01  0.716718901731E-01  0.739995239667E-01
  0.764025487793E-01  0.788833861558E-01  0.814445333670E-01  0.840885655687E-01  0.868181380011E-01
  0.896359882258E-01  0.925449383985E-01  0.955478975758E-01  0.986478640520E-01  0.101847927723E+00
  0.105151272474E+00  0.108561178583E+00  0.112081025141E+00  0.115714292479E+00  0.119464564590E+00
  0.123335531550E+00  0.127330991917E+00  0.131454855111E+00  0.135711143747E+00  0.140103995924E+00
  0.144637667447E+00  0.149316533975E+00  0.154145093058E+00  0.159127966072E+00  0.164269900004E+00
  0.169575769081E+00  0.175050576199E+00  0.180699454143E+00  0.186527666546E+00  0.192540608557E+00
  0.198743807184E+00  0.205142921256E+00  0.211743740962E+00  0.218552186908E+00  0.225574308639E+00
  0.232816282548E+00  0.240284409111E+00  0.247985109361E+00  0.255924920520E+00  0.264110490681E+00
  0.272548572447E+00  0.281246015408E+00  0.290209757327E+00  0.299446813897E+00  0.308964266929E+00
  0.318769250794E+00  0.328868936950E+00  0.339270516355E+00  0.349981179569E+00  0.361008094297E+00
  0.372358380151E+00  0.384039080344E+00  0.396057130048E+00  0.408419321098E+00  0.421132262718E+00
  0.434202337912E+00  0.447635655148E+00  0.461437994929E+00  0.475614750832E+00  0.490170864566E+00
  0.505110754568E+00  0.520438237658E+00  0.536156443228E+00  0.552267719440E+00  0.568773530890E+00
  0.585674347177E+00  0.602969521841E+00  0.620657161098E+00  0.638733981861E+00  0.657195158534E+00
  0.676034158109E+00  0.695242563182E+00  0.714809882559E+00  0.734723349236E+00  0.754967705681E+00
  0.775524976513E+00  0.796374228872E+00  0.817491321045E+00  0.838848640209E+00  0.860414830521E+00
  0.882154513219E+00  0.904028000894E+00  0.925991008689E+00  0.947994365859E+00  0.969983731867E+00
  0.991899322090E+00  0.101367564916E+01  0.103524128705E+01  0.105651866616E+01  0.107742390896E+01
  0.109786671704E+01  0.111775032188E+01  0.113697151290E+01  0.115542075792E+01  0.117298243226E+01
  0.118953517379E+01  0.120495238211E+01  0.121910288020E+01  0.123185175668E+01  0.124306140553E+01
  0.125259277801E+01  0.126030685777E+01  0.126606636476E+01  0.126973768623E+01  0.127119302276E+01
  0.127031272500E+01  0.126698777970E+01  0.126112238458E+01  0.125263652705E+01  0.124146845429E+01
  0.122757689030E+01  0.121094282058E+01  0.119157062785E+01  0.116948832450E+01  0.114474659239E+01
  0.111741631106E+01  0.108758423795E+01  0.105534650403E+01  0.102079961555E+01  0.984028715846E+00
  0.945092973801E+00  0.904005144051E+00  0.860825283070E+00  0.815955179821E+00  0.769883623254E+00
  0.723082492735E+00  0.676001312101E+00  0.629062548919E+00  0.582657644834E+00  0.537143774126E+00
  0.492841301215E+00  0.450031897450E+00  0.408957280336E+00  0.369818552600E+00  0.332776140877E+00
  0.297950354659E+00  0.265422595911E+00  0.235237238960E+00  0.207404168959E+00  0.181901919693E+00
  0.158681300928E+00  0.137669363997E+00  0.118773531009E+00  0.101885711257E+00  0.868862459285E-01
  0.736475539764E-01  0.620373917410E-01  0.519216805736E-01  0.431668951960E-01  0.356420364439E-01
  0.292202323226E-01  0.237800197080E-01  0.192063566727E-01  0.153914056337E-01  0.122351148374E-01
  0.964561435884E-02  0.753943558144E-02  0.584156088573E-02  0.448531224802E-02  0.341209198333E-02
  0.257099415802E-02  0.191830979539E-02  0.141695200346E-02  0.103582821768E-02  0.749185936582E-03
  0.535955962582E-03  0.379113692380E-03  0.265074898577E-03  0.183138131414E-03  0.124981690483E-03
  0.842193252700E-04
 ae wavefunction
  0.445093498386E-02  0.458332842604E-02  0.471962698087E-02  0.485994386736E-02  0.500439545953E-02
  0.515310136647E-02  0.530618451383E-02  0.546377122683E-02  0.562599131478E-02  0.579297815699E-02
  0.596486879020E-02  0.614180399732E-02  0.632392839762E-02  0.651139053815E-02  0.670434298653E-02
  0.690294242486E-02  0.710734974485E-02  0.731773014393E-02  0.753425322250E-02  0.775709308191E-02
  0.798642842336E-02  0.822244264749E-02  0.846532395444E-02  0.871526544446E-02  0.897246521878E-02
  0.923712648057E-02  0.950945763595E-02  0.978967239469E-02  0.100779898706E-01  0.103746346812E-01
  0.106798370466E-01  0.109938328869E-01  0.113168639189E-01  0.116491777506E-01  0.119910279736E-01
  0.123426742532E-01  0.127043824164E-01  0.130764245358E-01  0.134590790103E-01  0.138526306421E-01
  0.142573707088E-01  0.146735970305E-01  0.151016140312E-01  0.155417327940E-01  0.159942711095E-01
  0.164595535164E-01  0.169379113336E-01  0.174296826836E-01  0.179352125051E-01  0.184548525553E-01
  0.189889613999E-01  0.195379043901E-01  0.201020536254E-01  0.206817879015E-01  0.212774926410E-01
  0.218895598067E-01  0.225183877950E-01  0.231643813093E-01  0.238279512098E-01  0.245095143402E-01
  0.252094933274E-01  0.259283163542E-01  0.266664169015E-01  0.274242334583E-01  0.282022091981E-01
  0.290007916176E-01  0.298204321369E-01  0.306615856571E-01  0.315247100737E-01  0.324102657419E-01
  0.333187148913E-01  0.342505209858E-01  0.352061480271E-01  0.361860597958E-01  0.371907190277E-01
  0.382205865219E-01  0.392761201746E-01  0.403577739353E-01  0.414659966822E-01  0.426012310083E-01
  0.437639119179E-01  0.449544654239E-01  0.461733070434E-01  0.474208401855E-01  0.486974544232E-01
  0.500035236471E-01  0.513394040910E-01  0.527054322251E-01  0.541019225096E-01  0.555291650009E-01
  0.569874228045E-01  0.584769293667E-01  0.599978855976E-01  0.615504568176E-01  0.631347695208E-01
  0.647509079451E-01  0.663989104439E-01  0.680787656487E-01  0.697904084172E-01  0.715337155558E-01
  0.733085013117E-01  0.751145126243E-01  0.769514241301E-01  0.788188329118E-01  0.807162529866E-01
  0.826431095247E-01  0.845987327946E-01  0.865823518264E-01  0.885930877908E-01  0.906299470885E-01
  0.926918141472E-01  0.947774439239E-01  0.968854541123E-01  0.990143170561E-01  0.101162351370E+00
  0.103327713272E+00  0.105508387639E+00  0.107702178783E+00  0.109906700971E+00  0.112119368700E+00
  0.114337386734E+00  0.116557739946E+00  0.118777182966E+00  0.120992229677E+00  0.123199142599E+00
  0.125393922182E+00  0.127572296071E+00  0.129729708381E+00  0.131861309048E+00  0.133961943311E+00
  0.136026141412E+00  0.138048108574E+00  0.140021715365E+00  0.141940488531E+00  0.143797602422E+00
  0.145585871109E+00  0.147297741344E+00  0.148925286484E+00  0.150460201552E+00  0.151893799584E+00
  0.153217009449E+00  0.154420375348E+00  0.155494058168E+00  0.156427838951E+00  0.157211124685E+00
  0.157832956687E+00  0.158282021837E+00  0.158546666940E+00  0.158614916526E+00  0.158474494382E+00
  0.158112849148E+00  0.157517184306E+00  0.156674492912E+00  0.155571597416E+00  0.154195194943E+00
  0.152531908381E+00  0.150568343662E+00  0.148291153580E+00  0.145687108513E+00  0.142743174392E+00
  0.139446598235E+00  0.135785001570E+00  0.131746482000E+00  0.127319723164E+00  0.122494113285E+00
  0.117259872430E+00  0.111608188574E+00  0.105531362451E+00  0.990229611078E-01  0.920779799709E-01
  0.846930131192E-01  0.768664313281E-01  0.685985673076E-01  0.598919073921E-01  0.507512887641E-01
  0.411841010980E-01  0.312004913036E-01  0.208135698309E-01  0.100396167700E-01 -0.110171423706E-02
 -0.125871964769E-01 -0.243898374426E-01 -0.364786955164E-01 -0.488187088695E-01 -0.613705396338E-01
 -0.740904366980E-01 -0.869301208608E-01 -0.998366965184E-01 -0.112752594546E+00 -0.125615551480E+00
 -0.138358630478E+00 -0.150910289745E+00 -0.163194504192E+00 -0.175130945998E+00 -0.186635229494E+00
 -0.197619225446E+00 -0.207991449335E+00 -0.217657527803E+00 -0.226520746880E+00 -0.234482685096E+00
 -0.241443933906E+00 -0.247304907044E+00 -0.251966739475E+00 -0.255332275457E+00 -0.257307143938E+00
 -0.257800918038E+00 -0.256728353743E+00 -0.254010701084E+00 -0.249577079168E+00 -0.243365904216E+00
 -0.235326357550E+00 -0.225419878058E+00 -0.213621661239E+00 -0.199922144443E+00 -0.184328455493E+00
 -0.166865799551E+00 -0.147578756924E+00 -0.126532462602E+00 -0.103813636724E+00 -0.795314340078E-01
 -0.538180794810E-01 -0.268292579191E-01  0.125577457560E-02  0.302343859676E-01  0.598810956075E-01
  0.899484526854E-01  0.120168278758E+00  0.150253282632E+00  0.179899055302E+00  0.208786457378E+00
  0.236584419424E+00  0.262953180231E+00  0.287547978870E+00  0.310023188022E+00  0.330036838427E+00
  0.347255459297E+00  0.361359157633E+00  0.372046868765E+00  0.379041713438E+00  0.382096388185E+00
  0.380998502168E+00  0.375575763179E+00  0.365700911514E+00  0.351296301145E+00  0.332338030341E+00
  0.308859526140E+00  0.280954488484E+00  0.248779100713E+00  0.212553414633E+00  0.172561821449E+00
  0.129152526140E+00  0.827359534498E-01  0.337820300098E-01 -0.171836906681E-01 -0.695850670302E-01
 -0.122801552443E+00 -0.176175482731E+00 -0.229020418817E+00 -0.280630482227E+00 -0.330290559093E+00
 -0.377287058024E+00 -0.420918559722E+00 -0.460505408061E+00 -0.495397632551E+00 -0.524982026661E+00
 -0.548690934927E+00 -0.566014712390E+00 -0.576515987899E+00 -0.579841592544E+00 -0.575730466838E+00
 -0.564018646446E+00 -0.544642580909E+00 -0.517641152377E+00 -0.483156205794E+00 -0.441431274291E+00
 -0.392808300702E+00 -0.337722361936E+00 -0.276694577782E+00 -0.210323480264E+00 -0.139275144961E+00
 -0.642723733337E-01  0.139168098696E-01  0.944911048736E-01  0.176628111170E+00  0.259496521619E+00
  0.342268137704E+00  0.424129511552E+00  0.504293025914E+00  0.582007233845E+00  0.656566300960E+00
  0.727318420572E+00  0.793673098442E+00  0.855107203509E+00  0.911169641207E+00  0.961484423498E+00
  0.100575185468E+01  0.104374764273E+01  0.107532010609E+01  0.110038621093E+01  0.111892760397E+01
  0.113098767288E+01  0.113666990944E+01  0.113613695535E+01  0.112960930957E+01  0.111736287749E+01
  0.109972506741E+01  0.107706955450E+01  0.104981001876E+01  0.101839318222E+01  0.983291412903E+00
  0.944995121637E+00  0.904005144051E+00  0.860825283070E+00  0.815955179821E+00  0.769883623254E+00
  0.723082492735E+00  0.676001312101E+00  0.629062548919E+00  0.582657644834E+00  0.537143774126E+00
  0.492841301215E+00  0.450031897450E+00  0.408957280336E+00  0.369818552600E+00  0.332776140877E+00
  0.297950354659E+00  0.265422595911E+00  0.235237238960E+00  0.207404168959E+00  0.181901919693E+00
  0.158681300928E+00  0.137669363997E+00  0.118773531009E+00  0.101885711257E+00  0.868862459285E-01
  0.736475539764E-01  0.620373917410E-01  0.519216805736E-01  0.431668951960E-01  0.356420364439E-01
  0.292202323226E-01  0.237800197080E-01  0.192063566727E-01  0.153914056337E-01  0.122351148374E-01
  0.964561435884E-02  0.753943558144E-02  0.584156088573E-02  0.448531224802E-02  0.341209198333E-02
  0.257099415802E-02  0.191830979539E-02  0.141695200346E-02  0.103582821768E-02  0.749185936582E-03
  0.535955962582E-03  0.379113692380E-03  0.265074898577E-03  0.183138131414E-03  0.124981690483E-03
  0.842193252700E-04
 pseudo wavefunction
  0.183162503139E-03  0.189118490762E-03  0.195268152240E-03  0.201617785362E-03  0.208173892708E-03
  0.214943188303E-03  0.221932604496E-03  0.229149299061E-03  0.236600662522E-03  0.244294325725E-03
  0.252238167651E-03  0.260440323490E-03  0.268909192962E-03  0.277653448930E-03  0.286682046273E-03
  0.296004231063E-03  0.305629550029E-03  0.315567860336E-03  0.325829339681E-03  0.336424496711E-03
  0.347364181792E-03  0.358659598112E-03  0.370322313161E-03  0.382364270576E-03  0.394797802367E-03
  0.407635641553E-03  0.420890935199E-03  0.434577257876E-03  0.448708625569E-03  0.463299510026E-03
  0.478364853579E-03  0.493920084449E-03  0.509981132541E-03  0.526564445762E-03  0.543687006861E-03
  0.561366350825E-03  0.579620582833E-03  0.598468396797E-03  0.617929094510E-03  0.638022605407E-03
  0.658769506978E-03  0.680191045842E-03  0.702309159500E-03  0.725146498807E-03  0.748726451162E-03
  0.773073164465E-03  0.798211571839E-03  0.824167417171E-03  0.850967281470E-03  0.878638610088E-03
  0.907209740832E-03  0.936709932975E-03  0.967169397226E-03  0.998619326667E-03  0.103109192869E-02
  0.106462045800E-02  0.109923925064E-02  0.113498375917E-02  0.117189058897E-02  0.120999753573E-02
  0.124934362417E-02  0.128996914795E-02  0.133191571098E-02  0.137522627004E-02  0.141994517870E-02
  0.146611823281E-02  0.151379271736E-02  0.156301745491E-02  0.161384285558E-02  0.166632096870E-02
  0.172050553607E-02  0.177645204702E-02  0.183421779521E-02  0.189386193732E-02  0.195544555363E-02
  0.201903171054E-02  0.208468552519E-02  0.215247423208E-02  0.222246725198E-02  0.229473626299E-02
  0.236935527392E-02  0.244640070011E-02  0.252595144162E-02  0.260808896409E-02  0.269289738210E-02
  0.278046354532E-02  0.287087712744E-02  0.296423071799E-02  0.306061991711E-02  0.316014343349E-02
  0.326290318538E-02  0.336900440497E-02  0.347855574614E-02  0.359166939568E-02  0.370846118814E-02
  0.382905072446E-02  0.395356149438E-02  0.408212100288E-02  0.421486090070E-02  0.435191711913E-02
  0.449343000912E-02  0.463954448502E-02  0.479041017283E-02  0.494618156344E-02  0.510701817070E-02
  0.527308469473E-02  0.544455119045E-02  0.562159324168E-02  0.580439214076E-02  0.599313507413E-02
  0.618801531387E-02  0.638923241548E-02  0.659699242203E-02  0.681150807502E-02  0.703299903201E-02
  0.726169209133E-02  0.749782142410E-02  0.774162881376E-02  0.799336390336E-02  0.825328445088E-02
  0.852165659281E-02  0.879875511629E-02  0.908486374008E-02  0.938027540457E-02  0.968529257127E-02
  0.100002275319E-01  0.103254027276E-01  0.106611510784E-01  0.110078163231E-01  0.113657533709E-01
  0.117353286634E-01  0.121169205491E-01  0.125109196695E-01  0.129177293577E-01  0.133377660506E-01
  0.137714597129E-01  0.142192542766E-01  0.146816080930E-01  0.151589944003E-01  0.156519018058E-01
  0.161608347838E-01  0.166863141893E-01  0.172288777886E-01  0.177890808059E-01  0.183674964890E-01
  0.189647166916E-01  0.195813524751E-01  0.202180347294E-01  0.208754148132E-01  0.215541652153E-01
  0.222549802363E-01  0.229785766926E-01  0.237256946420E-01  0.244970981329E-01  0.252935759768E-01
  0.261159425452E-01  0.269650385923E-01  0.278417321019E-01  0.287469191627E-01  0.296815248697E-01
  0.306465042543E-01  0.316428432427E-01  0.326715596451E-01  0.337337041741E-01  0.348303614952E-01
  0.359626513096E-01  0.371317294696E-01  0.383387891280E-01  0.395850619228E-01  0.408718191962E-01
  0.422003732520E-01  0.435720786485E-01  0.449883335306E-01  0.464505810012E-01  0.479603105317E-01
  0.495190594136E-01  0.511284142523E-01  0.527900125019E-01  0.545055440445E-01  0.562767528123E-01
  0.581054384546E-01  0.599934580499E-01  0.619427278636E-01  0.639552251518E-01  0.660329900113E-01
  0.681781272770E-01  0.703928084662E-01  0.726792737692E-01  0.750398340875E-01  0.774768731188E-01
  0.799928494880E-01  0.825902989235E-01  0.852718364785E-01  0.880401587961E-01  0.908980464161E-01
  0.938483661218E-01  0.968940733261E-01  0.100038214492E+00  0.103283929585E+00  0.106634454557E+00
  0.110093123855E+00  0.113663372943E+00  0.117348740851E+00  0.121152872719E+00  0.125079522353E+00
  0.129132554768E+00  0.133315948718E+00  0.137633799197E+00  0.142090319906E+00  0.146689845667E+00
  0.151436834770E+00  0.156335871242E+00  0.161391667013E+00  0.166609063964E+00  0.171993035831E+00
  0.177548689940E+00  0.183281268750E+00  0.189196151164E+00  0.195298853581E+00  0.201595030651E+00
  0.208090475684E+00  0.214791120678E+00  0.221703035898E+00  0.228832428970E+00  0.236185643412E+00
  0.243769156539E+00  0.251589576668E+00  0.259653639540E+00  0.267968203862E+00  0.276540245884E+00
  0.285376852882E+00  0.294485215450E+00  0.303872618449E+00  0.313546430491E+00  0.323514091790E+00
  0.333783100207E+00  0.344360995329E+00  0.355255340353E+00  0.366473701578E+00  0.378023625265E+00
  0.389912611612E+00  0.402148085567E+00  0.414737364196E+00  0.427687620272E+00  0.441005841762E+00
  0.454698786843E+00  0.468772934054E+00  0.483234427185E+00  0.498089014458E+00  0.513341981543E+00
  0.528998077928E+00  0.545061436140E+00  0.561535483288E+00  0.578422844395E+00  0.595725236966E+00
  0.613443356235E+00  0.631576750529E+00  0.650123686207E+00  0.669081001646E+00  0.688443949773E+00
  0.708206028704E+00  0.728358800111E+00  0.748891695025E+00  0.769791806913E+00  0.791043672010E+00
  0.812629037071E+00  0.834526614932E+00  0.856711828570E+00  0.879156544662E+00  0.901828798035E+00
  0.924692508910E+00  0.947707195330E+00  0.970827683841E+00  0.994003822209E+00  0.101718019879E+01
  0.104029587407E+01  0.106328413105E+01  0.108607225219E+01  0.110858133187E+01  0.113072613495E+01
  0.115241501310E+01  0.117354989239E+01  0.119402634689E+01  0.121373377478E+01  0.123255569466E+01
  0.125037018097E+01  0.126705045829E+01  0.128246567476E+01  0.129648187425E+01  0.130896318611E+01
  0.131977324852E+01  0.132877687783E+01  0.133584199033E+01  0.134084177481E+01  0.134365710340E+01
  0.134417915389E+01  0.134231219914E+01  0.133797649675E+01  0.133111118580E+01  0.132167706612E+01
  0.130965909929E+01  0.129506843071E+01  0.127794368835E+01  0.125835126892E+01  0.123638427868E+01
  0.121215975712E+01  0.118581378393E+01  0.115749405894E+01  0.112734956094E+01  0.109551694509E+01
  0.106210344379E+01  0.102716620629E+01  0.990804452068E+00  0.953522374828E+00  0.915936108661E+00
  0.878664039155E+00  0.000000000000E+00  0.000000000000E+00  0.000000000000E+00  0.000000000000E+00
  0.000000000000E+00  0.000000000000E+00  0.000000000000E+00  0.000000000000E+00  0.000000000000E+00
  0.000000000000E+00  0.000000000000E+00  0.000000000000E+00  0.000000000000E+00  0.000000000000E+00
  0.000000000000E+00  0.000000000000E+00  0.000000000000E+00  0.000000000000E+00  0.000000000000E+00
  0.000000000000E+00  0.000000000000E+00  0.000000000000E+00  0.000000000000E+00  0.000000000000E+00
  0.000000000000E+00  0.000000000000E+00  0.000000000000E+00  0.000000000000E+00  0.000000000000E+00
  0.000000000000E+00  0.000000000000E+00  0.000000000000E+00  0.000000000000E+00  0.000000000000E+00
  0.000000000000E+00  0.000000000000E+00  0.000000000000E+00  0.000000000000E+00  0.000000000000E+00
  0.000000000000E+00  0.000000000000E+00  0.000000000000E+00  0.000000000000E+00  0.000000000000E+00
  0.000000000000E+00
 ae wavefunction
  0.468803873210E-02  0.482748484688E-02  0.497104410203E-02  0.511883574778E-02  0.527098235749E-02
  0.542760991191E-02  0.558884788502E-02  0.575482933148E-02  0.592569097563E-02  0.610157330199E-02
  0.628262064735E-02  0.646898129422E-02  0.666080756585E-02  0.685825592251E-02  0.706148705921E-02
  0.727066600462E-02  0.748596222127E-02  0.770754970680E-02  0.793560709635E-02  0.817031776579E-02
  0.841186993587E-02  0.866045677716E-02  0.891627651533E-02  0.917953253730E-02  0.945043349728E-02
  0.972919342326E-02  0.100160318233E-01  0.103111737918E-01  0.106148501149E-01  0.109272973757E-01
  0.112487580582E-01  0.115794806504E-01  0.119197197456E-01  0.122697361421E-01  0.126297969403E-01
  0.130001756386E-01  0.133811522246E-01  0.137730132645E-01  0.141760519879E-01  0.145905683688E-01
  0.150168692013E-01  0.154552681709E-01  0.159060859186E-01  0.163696500992E-01  0.168462954324E-01
  0.173363637457E-01  0.178402040076E-01  0.183581723529E-01  0.188906320957E-01  0.194379537319E-01
  0.200005149284E-01  0.205787004993E-01  0.211729023665E-01  0.217835195046E-01  0.224109578685E-01
  0.230556303014E-01  0.237179564231E-01  0.243983624963E-01  0.250972812687E-01  0.258151517898E-01
  0.265524192010E-01  0.273095344952E-01  0.280869542459E-01  0.288851403015E-01  0.297045594445E-01
  0.305456830110E-01  0.314089864693E-01  0.322949489545E-01  0.332040527558E-01  0.341367827528E-01
  0.350936257997E-01  0.360750700509E-01  0.370816042271E-01  0.381137168165E-01  0.391718952069E-01
  0.402566247462E-01  0.413683877249E-01  0.425076622771E-01  0.436749211950E-01  0.448706306516E-01
  0.460952488264E-01  0.473492244293E-01  0.486329951154E-01  0.499469857866E-01  0.512916067725E-01
  0.526672518847E-01  0.540742963378E-01  0.555130945304E-01  0.569839776787E-01  0.584872512957E-01
  0.600231925079E-01  0.615920472032E-01  0.631940270006E-01  0.648293060338E-01  0.664980175423E-01
  0.682002502591E-01  0.699360445888E-01  0.717053885664E-01  0.735082135885E-01  0.753443899092E-01
  0.772137218913E-01  0.791159430054E-01  0.810507105680E-01  0.830176002116E-01  0.850161000791E-01
  0.870456047349E-01  0.891054087868E-01  0.911947002127E-01  0.933125533867E-01  0.954579218002E-01
  0.976296304757E-01  0.998263680693E-01  0.102046678664E+00  0.104288953250E+00  0.106551420904E+00
  0.108832139656E+00  0.111128987066E+00  0.113439650519E+00  0.115761617229E+00  0.118092164001E+00
  0.120428346741E+00  0.122766989749E+00  0.125104674820E+00  0.127437730185E+00  0.129762219321E+00
  0.132073929678E+00  0.134368361376E+00  0.136640715901E+00  0.138885884896E+00  0.141098439079E+00
  0.143272617396E+00  0.145402316465E+00  0.147481080426E+00  0.149502091289E+00  0.151458159897E+00
  0.153341717633E+00  0.155144808994E+00  0.156859085201E+00  0.158475798990E+00  0.159985800769E+00
  0.161379536323E+00  0.162647046277E+00  0.163777967535E+00  0.164761536923E+00  0.165586597297E+00
  0.166241606364E+00  0.166714648519E+00  0.166993449971E+00  0.167065397489E+00  0.166917561081E+00
  0.166536720954E+00  0.165909399097E+00  0.165021895861E+00  0.163860331903E+00  0.162410695870E+00
  0.160658898214E+00  0.158590831515E+00  0.156192437700E+00  0.153449782528E+00  0.150349137704E+00
  0.146877070973E+00  0.143020544504E+00  0.138767021870E+00  0.134104583857E+00  0.129022053312E+00
  0.123509129187E+00  0.117556529832E+00  0.111156145560E+00  0.104301200365E+00  0.969864226112E-01
  0.892082243672E-01  0.809648889167E-01  0.722567658521E-01  0.630864729589E-01  0.534591039294E-01
  0.433824407296E-01  0.328671692319E-01  0.219270964888E-01  0.105793677926E-01 -0.115531857227E-02
 -0.132525012017E-01 -0.256837526057E-01 -0.384164861468E-01 -0.514137758466E-01 -0.646341922757E-01
 -0.780316580601E-01 -0.915553269327E-01 -0.105149490730E+00 -0.118753519241E+00 -0.132301838285E+00
 -0.145723951789E+00 -0.158944513853E+00 -0.171883456870E+00 -0.184456181685E+00 -0.196573815489E+00
 -0.208143542790E+00 -0.219069014321E+00 -0.229250838249E+00 -0.238587157506E+00 -0.246974316517E+00
 -0.254307619851E+00 -0.260482184530E+00 -0.265393886674E+00 -0.268940401973E+00 -0.271022338124E+00
 -0.271544455796E+00 -0.270416972981E+00 -0.267556945684E+00 -0.262889715805E+00 -0.256350414838E+00
 -0.247885509599E+00 -0.237454373722E+00 -0.225030866044E+00 -0.210604894436E+00 -0.194183941053E+00
 -0.175794522523E+00 -0.155483556337E+00 -0.133319602689E+00 -0.109393949328E+00 -0.838215057767E-01
 -0.567414725299E-01 -0.283177509232E-01  0.126093954921E-02  0.317812671110E-01  0.630058430281E-01
  0.946741465836E-01  0.126503833302E+00  0.158192435109E+00  0.189419460506E+00  0.219848907797E+00
  0.249132212868E+00  0.276911657788E+00  0.302824256951E+00  0.326506107512E+00  0.347597151317E+00
  0.365746269151E+00  0.380616626118E+00  0.391891196907E+00  0.399278402792E+00  0.402517783278E+00
  0.401385610961E+00  0.395700347210E+00  0.385327832036E+00  0.370186102353E+00  0.350249735681E+00
  0.325553618752E+00  0.296196042006E+00  0.262341021921E+00  0.224219754702E+00  0.182131108211E+00
  0.136441065554E+00  0.875810449864E-01  0.360450379977E-01 -0.176144691805E-01 -0.727917974024E-01
 -0.128834578734E+00 -0.185051420950E+00 -0.240720680035E+00 -0.295100274955E+00 -0.347438413681E+00
 -0.396984899292E+00 -0.443002319143E+00 -0.484776116223E+00 -0.521622899112E+00 -0.552897856937E+00
 -0.578003967237E+00 -0.596405067340E+00 -0.607640825829E+00 -0.611339256507E+00 -0.607224997074E+00
 -0.595124509773E+00 -0.574969526144E+00 -0.546799124054E+00 -0.510760239799E+00 -0.467106283063E+00
 -0.416193645342E+00 -0.358476109075E+00 -0.294497348860E+00 -0.224881815908E+00 -0.150324323648E+00
 -0.715786394215E-01  0.105546391479E-01  0.952406707462E-01  0.181623188450E+00  0.268837332166E+00
  0.356022286568E+00  0.442333520468E+00  0.526954429717E+00  0.609107197097E+00  0.688062705187E+00
  0.763149367282E+00  0.833760769675E+00  0.899362018629E+00  0.959494643767E+00  0.101377982243E+01
  0.106191963007E+01  0.110369611479E+01  0.113896837183E+01  0.116766839123E+01  0.118979691292E+01
  0.120542039488E+01  0.121466940911E+01  0.121773783594E+01  0.121488179643E+01  0.120641746859E+01
  0.119271748622E+01  0.117420606050E+01  0.115135316736E+01  0.112466816951E+01  0.109469318748E+01
  0.106199649733E+01  0.102716620629E+01  0.990804452068E+00  0.953522374828E+00  0.915936108661E+00
  0.878664039155E+00  0.000000000000E+00  0.000000000000E+00  0.000000000000E+00  0.000000000000E+00
  0.000000000000E+00  0.000000000000E+00  0.000000000000E+00  0.000000000000E+00  0.000000000000E+00
  0.000000000000E+00  0.000000000000E+00  0.000000000000E+00  0.000000000000E+00  0.000000000000E+00
  0.000000000000E+00  0.000000000000E+00  0.000000000000E+00  0.000000000000E+00  0.000000000000E+00
  0.000000000000E+00  0.000000000000E+00  0.000000000000E+00  0.000000000000E+00  0.000000000000E+00
  0.000000000000E+00  0.000000000000E+00  0.000000000000E+00  0.000000000000E+00  0.000000000000E+00
  0.000000000000E+00  0.000000000000E+00  0.000000000000E+00  0.000000000000E+00  0.000000000000E+00
  0.000000000000E+00  0.000000000000E+00  0.000000000000E+00  0.000000000000E+00  0.000000000000E+00
  0.000000000000E+00  0.000000000000E+00  0.000000000000E+00  0.000000000000E+00  0.000000000000E+00
  0.000000000000E+00
 pseudo wavefunction
  0.104165177368E-07  0.111049703776E-07  0.118389245044E-07  0.126213874196E-07  0.134555651852E-07
  0.143448757597E-07  0.152929630026E-07  0.163037116048E-07  0.173812630058E-07  0.185300323625E-07
  0.197547266405E-07  0.210603638997E-07  0.224522938557E-07  0.239362197997E-07  0.255182219669E-07
  0.272047824498E-07  0.290028117582E-07  0.309196771336E-07  0.329632327365E-07  0.351418518274E-07
  0.374644610756E-07  0.399405771356E-07  0.425803456400E-07  0.453945827707E-07  0.483948195768E-07
  0.515933492221E-07  0.550032773549E-07  0.586385758070E-07  0.625141398420E-07  0.666458491869E-07
  0.710506330979E-07  0.757465397260E-07  0.807528100674E-07  0.860899568017E-07  0.917798483404E-07
  0.978457984301E-07  0.104312661678E-06  0.111206935393E-06  0.118556868153E-06  0.126392575549E-06
  0.134746163588E-06  0.143651860235E-06  0.153146155664E-06  0.163267951771E-06  0.174058721569E-06
  0.185562679121E-06  0.197826960703E-06  0.210901817936E-06  0.224840823693E-06  0.239701091599E-06
  0.255543510057E-06  0.272432991724E-06  0.290438739489E-06  0.309634530021E-06  0.330099016059E-06
  0.351916048689E-06  0.375175020906E-06  0.399971233897E-06  0.426406287526E-06  0.454588496624E-06
  0.484633334803E-06  0.516663907585E-06  0.550811456823E-06  0.587215898442E-06  0.626026395727E-06
  0.667401970504E-06  0.711512154712E-06  0.758537685034E-06  0.808671243446E-06  0.862118246706E-06
  0.919097688019E-06  0.979843034336E-06  0.104460318295E-05  0.111364348131E-05  0.118724681427E-05
  0.126571476313E-05  0.134936884135E-05  0.143855181191E-05  0.153362909169E-05  0.163499024872E-05
  0.174305059843E-05  0.185825290523E-05  0.198106919677E-05  0.211200269789E-05  0.225158989259E-05
  0.240040272210E-05  0.255905092833E-05  0.272818455218E-05  0.290849659692E-05  0.310072586764E-05
  0.330565999837E-05  0.352413867918E-05  0.375705709666E-05  0.400536960173E-05  0.427009361980E-05
  0.455231381950E-05  0.485318655672E-05  0.517394461252E-05  0.551590224406E-05  0.588046056937E-05
  0.626911330800E-05  0.668345290101E-05  0.712517703545E-05  0.759609560004E-05  0.809813810046E-05
  0.863336156474E-05  0.920395897107E-05  0.981226823254E-05  0.104607817757E-04  0.111521567520E-04
  0.118892259240E-04  0.126750092716E-04  0.135127263638E-04  0.144058095498E-04  0.153579180202E-04
  0.163729527988E-04  0.174550727235E-04  0.186087114846E-04  0.198385957880E-04  0.211497647193E-04
  0.225475903866E-04  0.240377999279E-04  0.256264989724E-04  0.273201966517E-04  0.291258322639E-04
  0.310508036992E-04  0.331029977434E-04  0.352908223837E-04  0.376232412483E-04  0.401098103219E-04
  0.427607170856E-04  0.455868222437E-04  0.485997042054E-04  0.518117065056E-04  0.552359883574E-04
  0.588865785442E-04  0.627784328700E-04  0.669274954053E-04  0.713507637759E-04  0.760663587650E-04
  0.810935985096E-04  0.864530775970E-04  0.921667513828E-04  0.982580258761E-04  0.104751853558E-03
  0.111674835526E-03  0.119055330378E-03  0.126923570283E-03  0.135311784716E-03  0.144254332350E-03
  0.153787841656E-03  0.163951360773E-03  0.174786517272E-03  0.186337688445E-03  0.198652182837E-03
  0.211780433733E-03  0.225776205415E-03  0.240696813002E-03  0.256603356782E-03  0.273560971988E-03
  0.291639095018E-03  0.310911747199E-03  0.331457837224E-03  0.353361483511E-03  0.376712357765E-03
  0.401606051147E-03  0.428144464533E-03  0.456436224420E-03  0.486597126183E-03  0.518750606444E-03
  0.553028246470E-03  0.589570308623E-03  0.628526308003E-03  0.670055621594E-03  0.714328137338E-03
  0.761524945738E-03  0.811839076752E-03  0.865476284905E-03  0.922655885749E-03  0.983611646993E-03
  0.104859273781E-02  0.111786474013E-02  0.119171072578E-02  0.127043240387E-02  0.135435134283E-02
  0.144381027180E-02  0.153917446660E-02  0.164083322558E-02  0.174920144101E-02  0.186472127215E-02
  0.198786392632E-02  0.211913155493E-02  0.225905927140E-02  0.240821729895E-02  0.256721325593E-02
  0.273669458761E-02  0.291735115313E-02  0.310991797734E-02  0.331517817752E-02  0.353396607554E-02
  0.376717050674E-02  0.401573833718E-02  0.428067820183E-02  0.456306447646E-02  0.486404149712E-02
  0.518482804146E-02  0.552672208679E-02  0.589110586075E-02  0.627945120073E-02  0.669332523927E-02
  0.713439643302E-02  0.760444095375E-02  0.810534946028E-02  0.863913427101E-02  0.920793695723E-02
  0.981403637777E-02  0.104598571761E-01  0.111479787609E-01  0.118811447928E-01  0.126622731966E-01
  0.134944667233E-01  0.143810240802E-01  0.153254516521E-01  0.163314758309E-01  0.174030559734E-01
  0.185443980039E-01  0.197599686752E-01  0.210545105005E-01  0.224330573650E-01  0.239009508208E-01
  0.254638570650E-01  0.271277845958E-01  0.288991025306E-01  0.307845595679E-01  0.327913035588E-01
  0.349269016478E-01  0.371993609261E-01  0.396171495267E-01  0.421892180736E-01  0.449250213759E-01
  0.478345402360E-01  0.509283032129E-01  0.542174081546E-01  0.577135432762E-01  0.614290075242E-01
  0.653767299241E-01  0.695702875578E-01  0.740239217658E-01  0.787525521052E-01  0.837717875299E-01
  0.890979341812E-01  0.947479990975E-01  0.100739689059E+00  0.107091403681E+00  0.113822221773E+00
  0.120951879843E+00  0.128500741522E+00  0.136489756543E+00  0.144940407750E+00  0.153874644504E+00
  0.163314800654E+00  0.173283495122E+00  0.183803512985E+00  0.194897664777E+00  0.206588621624E+00
  0.218898723662E+00  0.231849759143E+00  0.245462711519E+00  0.259757471830E+00  0.274752513729E+00
  0.290464528630E+00  0.306908018694E+00  0.324094845688E+00  0.342033734296E+00  0.360729729095E+00
  0.380183605328E+00  0.400391234722E+00  0.421342909034E+00  0.443022625728E+00  0.465407342290E+00
  0.488466208173E+00  0.512159786234E+00  0.536439278866E+00  0.561245777716E+00  0.586509560013E+00
  0.612149458907E+00  0.638072339808E+00  0.664172719305E+00  0.690332567536E+00  0.716421338574E+00
  0.742296275955E+00  0.767803041338E+00  0.792776712635E+00  0.817043192920E+00  0.840421061871E+00
  0.862723886224E+00  0.883762983338E+00  0.903350601103E+00  0.921303436757E+00  0.937446365608E+00
  0.951616187599E+00  0.963665125367E+00  0.973463723391E+00  0.980902707343E+00  0.985893271617E+00
  0.988365180191E+00  0.988262004427E+00  0.985532798752E+00  0.980119554167E+00  0.971939898168E+00
  0.960864760445E+00  0.946686997850E+00  0.929216165815E+00  0.908607725927E+00  0.885134529191E+00
  0.859082786960E+00  0.830748562554E+00  0.800434383750E+00  0.768446003697E+00  0.735089290846E+00
  0.700667218501E+00  0.665476908215E+00  0.629806682436E+00  0.593933110841E+00  0.558118078687E+00
  0.522605934854E+00  0.487620928474E+00  0.453365009721E+00  0.420016240002E+00  0.387727914714E+00
  0.356628468359E+00  0.326822144788E+00  0.298390336861E+00  0.271393438161E+00  0.245873012003E+00
  0.221854071768E+00  0.199347280790E+00  0.178350916672E+00  0.158852499514E+00  0.140830048551E+00
  0.124252996756E+00  0.109082846178E+00  0.952736780885E-01  0.827726371439E-01  0.715204898843E-01
  0.614523233223E-01  0.524984092300E-01  0.445852232651E-01  0.376365810198E-01  0.315748375236E-01
  0.263220918456E-01  0.218013418140E-01  0.179375425691E-01  0.146585340765E-01  0.118958147913E-01
  0.958515001891E-02  0.766701336369E-02  0.608686762619E-02  0.479529752968E-02  0.374801084124E-02
  0.290572700067E-02
 ae wavefunction
 -0.117628442400E-04 -0.124363582501E-04 -0.131467322865E-04 -0.138960847760E-04 -0.146866518212E-04
 -0.155207940509E-04 -0.164010038619E-04 -0.173299130737E-04 -0.183103010211E-04 -0.193451031120E-04
 -0.204374198765E-04 -0.215905265383E-04 -0.228078831380E-04 -0.240931452430E-04 -0.254501752778E-04
 -0.268830545121E-04 -0.283960957464E-04 -0.299938567364E-04 -0.316811544005E-04 -0.334630798570E-04
 -0.353450143415E-04 -0.373326460540E-04 -0.394319879977E-04 -0.416493968595E-04 -0.439915930032E-04
 -0.464656816356E-04 -0.490791752184E-04 -0.518400171992E-04 -0.547566071400E-04 -0.578378273264E-04
 -0.610930709460E-04 -0.645322719284E-04 -0.681659365456E-04 -0.720051768786E-04 -0.760617462580E-04
 -0.803480767995E-04 -0.848773191536E-04 -0.896633846053E-04 -0.947209896586E-04 -0.100065703255E-03
 -0.105713996782E-03 -0.111683297030E-03 -0.117992042281E-03 -0.124659741705E-03 -0.131707038259E-03
 -0.139155775299E-03 -0.147029067113E-03 -0.155351373614E-03 -0.164148579425E-03 -0.173448077619E-03
 -0.183278858378E-03 -0.193671602853E-03 -0.204658782533E-03 -0.216274764431E-03 -0.228555922423E-03
 -0.241540755082E-03 -0.255270010392E-03 -0.269786817713E-03 -0.285136827414E-03 -0.301368358601E-03
 -0.318532555390E-03 -0.336683552192E-03 -0.355878648527E-03 -0.376178493858E-03 -0.397647283011E-03
 -0.420352962752E-03 -0.444367450112E-03 -0.469766863083E-03 -0.496631764356E-03 -0.525047418761E-03
 -0.555104065144E-03 -0.586897203403E-03 -0.620527897472E-03 -0.656103095046E-03 -0.693735964895E-03
 -0.733546252614E-03 -0.775660655728E-03 -0.820213219067E-03 -0.867345751380E-03 -0.917208264164E-03
 -0.969959433751E-03 -0.102576708767E-02 -0.108480871639E-02 -0.114727201152E-02 -0.121335543155E-02
 -0.128326879644E-02 -0.135723391190E-02 -0.143548522492E-02 -0.151827051134E-02 -0.160585159695E-02
 -0.169850511315E-02 -0.179652328826E-02 -0.190021477581E-02 -0.200990552082E-02 -0.212593966508E-02
 -0.224868049268E-02 -0.237851141649E-02 -0.251583700667E-02 -0.266108406192E-02 -0.281470272425E-02
 -0.297716763767E-02 -0.314897915134E-02 -0.333066456736E-02 -0.352277943322E-02 -0.372590887868E-02
 -0.394066899667E-02 -0.416770826727E-02 -0.440770902393E-02 -0.466138896007E-02 -0.492950267442E-02
 -0.521284325252E-02 -0.551224388148E-02 -0.582857949441E-02 -0.616276844040E-02 -0.651577417493E-02
 -0.688860696516E-02 -0.728232560336E-02 -0.769803912081E-02 -0.813690849365E-02 -0.860014833066E-02
 -0.908902853203E-02 -0.960487590649E-02 -0.101490757328E-01 -0.107230732500E-01 -0.113283750592E-01
 -0.119665504173E-01 -0.126392324014E-01 -0.133481189204E-01 -0.140949735484E-01 -0.148816261500E-01
 -0.157099732689E-01 -0.165819782427E-01 -0.174996710101E-01 -0.184651475680E-01 -0.194805690362E-01
 -0.205481602826E-01 -0.216702080574E-01 -0.228490585828E-01 -0.240871145390E-01 -0.253868313837E-01
 -0.267507129389E-01 -0.281813061740E-01 -0.296811951080E-01 -0.312529937538E-01 -0.328993380180E-01
 -0.346228764693E-01 -0.364262598825E-01 -0.383121294619E-01 -0.402831036447E-01 -0.423417633805E-01
 -0.444906357817E-01 -0.467321760367E-01 -0.490687474769E-01 -0.515025996868E-01 -0.540358445489E-01
 -0.566704301156E-01 -0.594081122017E-01 -0.622504236009E-01 -0.651986408294E-01 -0.682537483134E-01
 -0.714163999463E-01 -0.746868779538E-01 -0.780650490235E-01 -0.815503176721E-01 -0.851415768501E-01
 -0.888371558067E-01 -0.926347652713E-01 -0.965314400416E-01 -0.100523479111E+00 -0.104606383514E+00
 -0.108774792107E+00 -0.113022415594E+00 -0.117341969112E+00 -0.121725103818E+00 -0.126162337954E+00
 -0.130642987943E+00 -0.135155100171E+00 -0.139685384139E+00 -0.144219147794E+00 -0.148740235858E+00
 -0.153230972081E+00 -0.157672106387E+00 -0.162042767992E+00 -0.166320425660E+00 -0.170480856455E+00
 -0.174498124571E+00 -0.178344572048E+00 -0.181990823477E+00 -0.185405807034E+00 -0.188556794307E+00
 -0.191409461478E+00 -0.193927974336E+00 -0.196075099524E+00 -0.197812344177E+00 -0.199100125922E+00
 -0.199897974952E+00 -0.200164769663E+00 -0.199859007193E+00 -0.198939109983E+00 -0.197363769370E+00
 -0.195092326905E+00 -0.192085193802E+00 -0.188304308491E+00 -0.183713631716E+00 -0.178279678070E+00
 -0.171972082163E+00 -0.164764196875E+00 -0.156633720330E+00 -0.147563347281E+00 -0.137541439633E+00
 -0.126562709755E+00 -0.114628909140E+00 -0.101749513810E+00 -0.879423967459E-01 -0.732344764548E-01
 -0.576623297376E-01 -0.412727557081E-01 -0.241232772317E-01 -0.628256522208E-02  0.121692292946E-01
  0.311402506970E-01  0.505268370471E-01  0.702135555309E-01  0.900733878349E-01  0.109968075671E+00
  0.129748633485E+00  0.149256032569E+00  0.168322059961E+00  0.186770358037E+00  0.204417656942E+00
  0.221075219462E+00  0.236550521253E+00  0.250649181170E+00  0.263177134420E+00  0.273943015420E+00
  0.282760704240E+00  0.289451995557E+00  0.293849360483E+00  0.295798775771E+00  0.295162589337E+00
  0.291822381715E+00  0.285681776366E+00  0.276669149529E+00  0.264740191129E+00  0.249880269714E+00
  0.232106554917E+00  0.211469850272E+00  0.188056087574E+00  0.161987432342E+00  0.133422948847E+00
  0.102558773724E+00  0.696277503192E-01  0.348984824114E-01 -0.132622372396E-02 -0.387115469225E-01
 -0.768934735082E-01 -0.115482251230E+00 -0.154066470348E+00 -0.192217764905E+00 -0.229496090493E+00
 -0.265455405819E+00 -0.299649336047E+00 -0.331636170285E+00 -0.360982753961E+00 -0.387267853143E+00
 -0.410086877370E+00 -0.429059544265E+00 -0.443839312019E+00 -0.454121604315E+00 -0.459649521636E+00
 -0.460217801705E+00 -0.455675969211E+00 -0.445930976248E+00 -0.430949202263E+00 -0.410757553308E+00
 -0.385443457230E+00 -0.355153688159E+00 -0.320092080652E+00 -0.280516268076E+00 -0.236733603634E+00
 -0.189096417037E+00 -0.137996743471E+00 -0.838606444332E-01 -0.271422263242E-01  0.316825461809E-01
  0.921221486817E-01  0.153675814070E+00  0.215839772726E+00  0.278113320622E+00  0.340004625305E+00
  0.401036190081E+00  0.460749907843E+00  0.518711631603E+00  0.574515155845E+00  0.627785433496E+00
  0.678180787975E+00  0.725393904477E+00  0.769151607870E+00  0.809213850545E+00  0.845372721770E+00
  0.877452309684E+00  0.905309768226E+00  0.928837256570E+00  0.947964016255E+00  0.962657893009E+00
  0.972925949424E+00  0.978814125936E+00  0.980406071755E+00  0.977821304746E+00  0.971212830143E+00
  0.960764327333E+00  0.946686997850E+00  0.929216165815E+00  0.908607725927E+00  0.885134529191E+00
  0.859082786960E+00  0.830748562554E+00  0.800434383750E+00  0.768446003697E+00  0.735089290846E+00
  0.700667218501E+00  0.665476908215E+00  0.629806682436E+00  0.593933110841E+00  0.558118078687E+00
  0.522605934854E+00  0.487620928474E+00  0.453365009721E+00  0.420016240002E+00  0.387727914714E+00
  0.356628468359E+00  0.326822144788E+00  0.298390336861E+00  0.271393438161E+00  0.245873012003E+00
  0.221854071768E+00  0.199347280790E+00  0.178350916672E+00  0.158852499514E+00  0.140830048551E+00
  0.124252996756E+00  0.109082846178E+00  0.952736780885E-01  0.827726371439E-01  0.715204898843E-01
  0.614523233223E-01  0.524984092300E-01  0.445852232651E-01  0.376365810198E-01  0.315748375236E-01
  0.263220918456E-01  0.218013418140E-01  0.179375425691E-01  0.146585340765E-01  0.118958147913E-01
  0.958515001891E-02  0.766701336369E-02  0.608686762619E-02  0.479529752968E-02  0.374801084124E-02
  0.290572700067E-02
 pseudo wavefunction
  0.142170524161E-07  0.151566915092E-07  0.161584336034E-07  0.172263832348E-07  0.183649162183E-07
  0.195786975769E-07  0.208727006561E-07  0.222522275016E-07  0.237229305843E-07  0.252908359600E-07
  0.269623679614E-07  0.287443755205E-07  0.306441602316E-07  0.326695062689E-07  0.348287122814E-07
  0.371306253955E-07  0.395846774655E-07  0.422009237194E-07  0.449900839593E-07  0.479635864847E-07
  0.511336149187E-07  0.545131581293E-07  0.581160634496E-07  0.619570934162E-07  0.660519862571E-07
  0.704175203770E-07  0.750715831059E-07  0.800332439899E-07  0.853228329267E-07  0.909620234659E-07
  0.969739216134E-07  0.103383160506E-06  0.110216001343E-06  0.117500440990E-06  0.125266326691E-06
  0.133545478365E-06  0.142371818987E-06  0.151781513580E-06  0.161813117400E-06  0.172507733911E-06
  0.183909183205E-06  0.196064181542E-06  0.209022532777E-06  0.222837332415E-06  0.237565185170E-06
  0.253266436895E-06  0.270005421842E-06  0.287850726268E-06  0.306875469453E-06  0.327157603305E-06
  0.348780231757E-06  0.371831951274E-06  0.396407213868E-06  0.422606714107E-06  0.450537801697E-06
  0.480314921337E-06  0.512060081641E-06  0.545903355053E-06  0.581983410811E-06  0.620448083117E-06
  0.661454976879E-06  0.705172113475E-06  0.751778619198E-06  0.801465459208E-06  0.854436219985E-06
  0.910907943502E-06  0.971112016525E-06  0.103529511869E-05  0.110372023324E-05  0.117666772457E-05
  0.125443648697E-05  0.133734516932E-05  0.142573348070E-05  0.151996358230E-05  0.162042157133E-05
  0.172751906297E-05  0.184169487696E-05  0.196341683552E-05  0.209318368026E-05  0.223152711561E-05
  0.237901398746E-05  0.253624860570E-05  0.270387522025E-05  0.288258066078E-05  0.307309715087E-05
  0.327620530816E-05  0.349273734278E-05  0.372358046715E-05  0.396968053118E-05  0.423204589767E-05
  0.451175157386E-05  0.480994361604E-05  0.512784382524E-05  0.546675475323E-05  0.582806503947E-05
  0.621325510061E-05  0.662390319618E-05  0.706169189498E-05  0.752841496895E-05  0.802598474260E-05
  0.855643992811E-05  0.912195397828E-05  0.972484399151E-05  0.103675802052E-04  0.110527961167E-04
  0.117832992727E-04  0.125620827724E-04  0.133923375302E-04  0.142774653486E-04  0.152210928559E-04
  0.162270863645E-04  0.172995677102E-04  0.184429311401E-04  0.196618613145E-04  0.209613524995E-04
  0.223467290281E-04  0.238236671119E-04  0.253982180961E-04  0.270768332490E-04  0.288663901916E-04
  0.307742210716E-04  0.328081426005E-04  0.349764880744E-04  0.372881415108E-04  0.397525740411E-04
  0.423798827067E-04  0.451808318192E-04  0.481668970526E-04  0.513503124481E-04  0.547441205251E-04
  0.583622257013E-04  0.622194512425E-04  0.663315999739E-04  0.707155190018E-04  0.753891687098E-04
  0.803716963122E-04  0.856835142656E-04  0.913463838583E-04  0.973835043201E-04  0.103819607817E-03
  0.110681060716E-03  0.117995971540E-03  0.125794306049E-03  0.134108009913E-03  0.142971139493E-03
  0.152420001248E-03  0.162493300339E-03  0.173232299053E-03  0.184680985672E-03  0.196886254481E-03
  0.209898097663E-03  0.223769809847E-03  0.238558206145E-03  0.254323854573E-03  0.271131323797E-03
  0.289049447217E-03  0.308151604446E-03  0.328516021361E-03  0.350226089910E-03  0.373370708997E-03
  0.398044647820E-03  0.424348933135E-03  0.452391262019E-03  0.482286441805E-03  0.514156858957E-03
  0.548132978807E-03  0.584353878139E-03  0.622967812802E-03  0.664132822623E-03  0.708017376052E-03
  0.754801057156E-03  0.804675297699E-03  0.857844157254E-03  0.914525154484E-03  0.974950152899E-03
  0.103936630465E-02  0.110803705611E-02  0.118124321924E-02  0.125928411303E-02  0.134247877951E-02
  0.143116727911E-02  0.152571207062E-02  0.162649948099E-02  0.173394127093E-02  0.184847630223E-02
  0.197057231360E-02  0.210072781161E-02  0.223947408430E-02  0.238737734515E-02  0.254504101568E-02
  0.271310815533E-02  0.289226404806E-02  0.308323895528E-02  0.328681104568E-02  0.350380951276E-02
  0.373511789186E-02  0.398167758882E-02  0.424449163332E-02  0.452462867059E-02  0.482322720579E-02
  0.514150011656E-02  0.548073944931E-02  0.584232151657E-02  0.622771231269E-02  0.663847326669E-02
  0.707626735158E-02  0.754286557062E-02  0.804015384165E-02  0.857014030179E-02  0.913496305553E-02
  0.973689839026E-02  0.103783694840E-01  0.110619556310E-01  0.117904020122E-01  0.125666300366E-01
  0.133937482826E-01  0.142750640669E-01  0.152140956697E-01  0.162145852453E-01  0.172805124470E-01
  0.184161087939E-01  0.196258728099E-01  0.209145859587E-01  0.222873294041E-01  0.237495016161E-01
  0.253068368471E-01  0.269654244947E-01  0.287317293666E-01  0.306126128568E-01  0.326153550373E-01
  0.347476776625E-01  0.370177680745E-01  0.394343039885E-01  0.420064791246E-01  0.447440296410E-01
  0.476572613046E-01  0.507570773183E-01  0.540550067037E-01  0.575632331102E-01  0.612946238976E-01
  0.652627593015E-01  0.694819614592E-01  0.739673230271E-01  0.787347350762E-01  0.838009138959E-01
  0.891834262774E-01  0.949007127777E-01  0.100972108390E+00  0.107417859958E+00  0.114259139584E+00
  0.121518053163E+00  0.129217643067E+00  0.137381883875E+00  0.146035669901E+00  0.155204793123E+00
  0.164915909939E+00  0.175196495020E+00  0.186074780321E+00  0.197579677106E+00  0.209740678664E+00
  0.222587741131E+00  0.236151139637E+00  0.250461296783E+00  0.265548580195E+00  0.281443065744E+00
  0.298174262805E+00  0.315770797786E+00  0.334260052054E+00  0.353667750335E+00  0.374017495699E+00
  0.395330247405E+00  0.417623738118E+00  0.440911827471E+00  0.465203789596E+00  0.490503533062E+00
  0.516808752898E+00  0.544110015781E+00  0.572389781409E+00  0.601621365308E+00  0.631767851150E+00
  0.662780963910E+00  0.694599919067E+00  0.727150267441E+00  0.760342760250E+00  0.794072264446E+00
  0.828216764290E+00  0.862636491300E+00  0.897173230886E+00  0.931649859847E+00  0.965870173997E+00
  0.999619068844E+00  0.103266313774E+01  0.106475175027E+01  0.109561866753E+01  0.112498423945E+01
  0.115255821007E+01  0.117804312913E+01  0.120113832981E+01  0.122154438208E+01  0.123896786757E+01
  0.125312624495E+01  0.126375248491E+01  0.127059905394E+01  0.127344072145E+01  0.127207556274E+01
  0.126632344448E+01  0.125602122700E+01  0.124101392158E+01  0.122114113163E+01  0.119621831879E+01
  0.116601280852E+01  0.113021502597E+01  0.108853598562E+01  0.104112387425E+01  0.988260595971E+00
  0.930239981498E+00  0.000000000000E+00  0.000000000000E+00  0.000000000000E+00  0.000000000000E+00
  0.000000000000E+00  0.000000000000E+00  0.000000000000E+00  0.000000000000E+00  0.000000000000E+00
  0.000000000000E+00  0.000000000000E+00  0.000000000000E+00  0.000000000000E+00  0.000000000000E+00
  0.000000000000E+00  0.000000000000E+00  0.000000000000E+00  0.000000000000E+00  0.000000000000E+00
  0.000000000000E+00  0.000000000000E+00  0.000000000000E+00  0.000000000000E+00  0.000000000000E+00
  0.000000000000E+00  0.000000000000E+00  0.000000000000E+00  0.000000000000E+00  0.000000000000E+00
  0.000000000000E+00  0.000000000000E+00  0.000000000000E+00  0.000000000000E+00  0.000000000000E+00
  0.000000000000E+00  0.000000000000E+00  0.000000000000E+00  0.000000000000E+00  0.000000000000E+00
  0.000000000000E+00  0.000000000000E+00  0.000000000000E+00  0.000000000000E+00  0.000000000000E+00
  0.000000000000E+00
 ae wavefunction
 -0.157273428843E-04 -0.166278552485E-04 -0.175776507861E-04 -0.185795619098E-04 -0.196365783687E-04
 -0.207518564083E-04 -0.219287284526E-04 -0.231707133383E-04 -0.244815271361E-04 -0.258650945914E-04
 -0.273255612243E-04 -0.288673061261E-04 -0.304949554952E-04 -0.322133969565E-04 -0.340277947098E-04
 -0.359436055592E-04 -0.379665958735E-04 -0.401028595357E-04 -0.423588369384E-04 -0.447413350891E-04
 -0.472575488930E-04 -0.499150836773E-04 -0.527219790433E-04 -0.556867341089E-04 -0.588183342418E-04
 -0.621262793582E-04 -0.656206138889E-04 -0.693119585082E-04 -0.732115437317E-04 -0.773312454938E-04
 -0.816836228232E-04 -0.862819577399E-04 -0.911402975067E-04 -0.962734993742E-04 -0.101697277967E-03
 -0.107428255469E-03 -0.113484014773E-03 -0.119883155764E-03 -0.126645354936E-03 -0.133791428523E-03
 -0.141343399359E-03 -0.149324567689E-03 -0.157759586156E-03 -0.166674539220E-03 -0.176097027254E-03
 -0.186056255607E-03 -0.196583128910E-03 -0.207710350943E-03 -0.219472530376E-03 -0.231906292726E-03
 -0.245050398904E-03 -0.258945870707E-03 -0.273636123678E-03 -0.289167107744E-03 -0.305587456075E-03
 -0.322948642641E-03 -0.341305148952E-03 -0.360714640504E-03 -0.381238153469E-03 -0.402940292216E-03
 -0.425889438252E-03 -0.450157971216E-03 -0.475822502608E-03 -0.502964122917E-03 -0.531668662914E-03
 -0.562026969840E-03 -0.594135199320E-03 -0.628095123815E-03 -0.664014458500E-03 -0.702007205477E-03
 -0.742194017278E-03 -0.784702580647E-03 -0.829668021636E-03 -0.877233333092E-03 -0.927549825648E-03
 -0.980777603385E-03 -0.103708606535E-02 -0.109665443419E-02 -0.115967231318E-02 -0.122634027294E-02
 -0.129687046927E-02 -0.137148729345E-02 -0.145042805640E-02 -0.153394370833E-02 -0.162229959514E-02
 -0.171577625335E-02 -0.181467024489E-02 -0.191929503341E-02 -0.202998190375E-02 -0.214708092596E-02
 -0.227096196563E-02 -0.240201574199E-02 -0.254065493528E-02 -0.268731534496E-02 -0.284245710023E-02
 -0.300656592405E-02 -0.318015445221E-02 -0.336376360844E-02 -0.355796403670E-02 -0.376335759162E-02
 -0.398057888773E-02 -0.421029690807E-02 -0.445321667254E-02 -0.471008096587E-02 -0.498167212514E-02
 -0.526881388593E-02 -0.557237328635E-02 -0.589326262726E-02 -0.623244148669E-02 -0.659091878592E-02
 -0.696975490397E-02 -0.737006383653E-02 -0.779301539456E-02 -0.823983743699E-02 -0.871181813087E-02
 -0.921030823125E-02 -0.973672337194E-02 -0.102925463571E-01 -0.108793294417E-01 -0.114986965881E-01
 -0.121523456839E-01 -0.128420507034E-01 -0.135696637959E-01 -0.143371172774E-01 -0.151464255048E-01
 -0.159996866054E-01 -0.168990840335E-01 -0.178468879225E-01 -0.188454561989E-01 -0.198972354179E-01
 -0.210047612824E-01 -0.221706587962E-01 -0.233976420055E-01 -0.246885132722E-01 -0.260461620232E-01
 -0.274735629111E-01 -0.289737733186E-01 -0.305499301351E-01 -0.322052457256E-01 -0.339430030088E-01
 -0.357665495555E-01 -0.376792906109E-01 -0.396846809413E-01 -0.417862153979E-01 -0.439874180845E-01
 -0.462918300133E-01 -0.487029951213E-01 -0.512244445233E-01 -0.538596788636E-01 -0.566121486319E-01
 -0.594852322993E-01 -0.624822121326E-01 -0.656062475385E-01 -0.688603457918E-01 -0.722473300022E-01
 -0.757698041738E-01 -0.794301152192E-01 -0.832303117928E-01 -0.871720998204E-01 -0.912567946092E-01
 -0.954852694401E-01 -0.998579005612E-01 -0.104374508522E+00 -0.109034295813E+00 -0.113835780815E+00
 -0.118776728078E+00 -0.123854075020E+00 -0.129063855147E+00 -0.134401117994E+00 -0.139859846003E+00
 -0.145432868653E+00 -0.151111774225E+00 -0.156886819664E+00 -0.162746839082E+00 -0.168679151580E+00
 -0.174669469106E+00 -0.180701805225E+00 -0.186758385734E+00 -0.192819562176E+00 -0.198863729378E+00
 -0.204867248224E+00 -0.210804374989E+00 -0.216647198638E+00 -0.222365587694E+00 -0.227927148462E+00
 -0.233297196723E+00 -0.238438745343E+00 -0.243312510586E+00 -0.247876940262E+00 -0.252088267026E+00
 -0.255900590224E+00 -0.259265989636E+00 -0.262134674290E+00 -0.264455169263E+00 -0.266174543101E+00
 -0.267238678126E+00 -0.267592585672E+00 -0.267180767976E+00 -0.265947628296E+00 -0.263837930542E+00
 -0.260797309402E+00 -0.256772831483E+00 -0.251713607424E+00 -0.245571454266E+00 -0.238301606569E+00
 -0.229863473882E+00 -0.220221441162E+00 -0.209345707620E+00 -0.197213158271E+00 -0.183808261091E+00
 -0.169123981329E+00 -0.153162702984E+00 -0.135937145971E+00 -0.117471265943E+00 -0.978011222178E-01
 -0.769756978336E-01 -0.550576544004E-01 -0.321240032352E-01 -0.826667329265E-02  0.164070443142E-01
  0.417741957508E-01  0.676960281847E-01  0.940180370860E-01  0.120570214220E+00  0.147167510026E+00
  0.173610519839E+00  0.199686399641E+00  0.225170015918E+00  0.249825337598E+00  0.273407086355E+00
  0.295662671575E+00  0.316334440681E+00  0.335162264563E+00  0.351886448431E+00  0.366250923818E+00
  0.378006660094E+00  0.386915240588E+00  0.392752563716E+00  0.395312635023E+00  0.394411408553E+00
  0.389890623542E+00  0.381621573371E+00  0.369508740779E+00  0.353493234351E+00  0.333555963248E+00
  0.309720487782E+00  0.282055482496E+00  0.250676746194E+00  0.215748691108E+00  0.177485241896E+00
  0.136150075875E+00  0.920561400350E-01  0.455643890723E-01 -0.291829756392E-02 -0.529420441869E-01
 -0.104017760288E+00 -0.155621771103E+00 -0.207201291988E+00 -0.258180737728E+00 -0.307968808547E+00
 -0.355966121507E+00 -0.401572822284E+00 -0.444195311265E+00 -0.483251498906E+00 -0.518175366910E+00
 -0.548423361530E+00 -0.573484732532E+00 -0.592894238823E+00 -0.606243237820E+00 -0.613187415560E+00
 -0.613452180975E+00 -0.606836981073E+00 -0.593218937691E+00 -0.572555628099E+00 -0.544886660212E+00
 -0.510333770150E+00 -0.469099353209E+00 -0.421463508950E+00 -0.367779780036E+00 -0.308469795882E+00
 -0.244017024617E+00 -0.174959814922E+00 -0.101883886376E+00 -0.254144087890E-01  0.537922007004E-01
  0.135056638638E+00  0.217685109794E+00  0.300977627930E+00  0.384236095332E+00  0.466772040633E+00
  0.547913908258E+00  0.627013807443E+00  0.703453622442E+00  0.776650340853E+00  0.846060364483E+00
  0.911182482280E+00  0.971559223570E+00  0.102677661544E+01  0.107646292668E+01  0.112028749104E+01
  0.115796070939E+01  0.118923567188E+01  0.121391092185E+01  0.123183335582E+01  0.124290032529E+01
  0.124706046721E+01  0.124431320619E+01  0.123470708633E+01  0.121833713611E+01  0.119534142869E+01
  0.116589697032E+01  0.113021502597E+01  0.108853598562E+01  0.104112387425E+01  0.988260595971E+00
  0.930239981498E+00  0.000000000000E+00  0.000000000000E+00  0.000000000000E+00  0.000000000000E+00
  0.000000000000E+00  0.000000000000E+00  0.000000000000E+00  0.000000000000E+00  0.000000000000E+00
  0.000000000000E+00  0.000000000000E+00  0.000000000000E+00  0.000000000000E+00  0.000000000000E+00
  0.000000000000E+00  0.000000000000E+00  0.000000000000E+00  0.000000000000E+00  0.000000000000E+00
  0.000000000000E+00  0.000000000000E+00  0.000000000000E+00  0.000000000000E+00  0.000000000000E+00
  0.000000000000E+00  0.000000000000E+00  0.000000000000E+00  0.000000000000E+00  0.000000000000E+00
  0.000000000000E+00  0.000000000000E+00  0.000000000000E+00  0.000000000000E+00  0.000000000000E+00
  0.000000000000E+00  0.000000000000E+00  0.000000000000E+00  0.000000000000E+00  0.000000000000E+00
  0.000000000000E+00  0.000000000000E+00  0.000000000000E+00  0.000000000000E+00  0.000000000000E+00
  0.000000000000E+00
 pseudo wavefunction
  0.328488817054E-12  0.361587042730E-12  0.398020214634E-12  0.438124358824E-12  0.482269359029E-12
  0.530862368118E-12  0.584351563298E-12  0.643230279695E-12  0.708041560415E-12  0.779383165084E-12
  0.857913083023E-12  0.944355601943E-12  0.103950798810E-11  0.114424783957E-11  0.125954118035E-11
  0.138645137015E-11  0.152614891179E-11  0.167992224683E-11  0.184918963905E-11  0.203551225510E-11
  0.224060856335E-11  0.246637018341E-11  0.271487933274E-11  0.298842803102E-11  0.328953923973E-11
  0.362099013155E-11  0.398583770448E-11  0.438744697677E-11  0.482952202271E-11  0.531614013567E-11
  0.585178943325E-11  0.644141025154E-11  0.709044071027E-11  0.780486686895E-11  0.859127793683E-11
  0.945692704568E-11  0.104097981459E-10  0.114586796434E-10  0.126132454553E-10  0.138841442337E-10
  0.152830975786E-10  0.168230081474E-10  0.185180786572E-10  0.203839428772E-10  0.224378098205E-10
  0.246986224638E-10  0.271872324605E-10  0.299265924563E-10  0.329419677840E-10  0.362611694870E-10
  0.399148108231E-10  0.439365896125E-10  0.483635990355E-10  0.532366697459E-10  0.586007464548E-10
  0.645053024591E-10  0.710047959377E-10  0.781591722228E-10  0.860344166803E-10  0.947031632977E-10
  0.104245364593E-09  0.114749029020E-09  0.126311032682E-09  0.139038012820E-09  0.153047351342E-09
  0.168468257438E-09  0.185442959290E-09  0.204128015852E-09  0.224695760800E-09  0.247335891981E-09
  0.272257221006E-09  0.299689599131E-09  0.329886037197E-09  0.363125039157E-09  0.399713170735E-09
  0.439987886907E-09  0.484320644261E-09  0.533120326962E-09  0.586837017918E-09  0.645966149915E-09
  0.711053075018E-09  0.782698094383E-09  0.861561994862E-09  0.948372143469E-09  0.104392919592E-08
  0.114911448110E-08  0.126489812962E-08  0.139234802134E-08  0.153263963446E-08  0.168706688703E-08
  0.185705407070E-08  0.204416898711E-08  0.225013740766E-08  0.247685899035E-08  0.272642480038E-08
  0.300113659598E-08  0.330352805762E-08  0.363638815606E-08  0.400278687499E-08  0.440610352552E-08
  0.485005791339E-08  0.533874464669E-08  0.587667090025E-08  0.646879798510E-08  0.712058710641E-08
  0.783804973182E-08  0.862780303476E-08  0.949713092413E-08  0.104540512231E-07  0.115073896166E-07
  0.126668610498E-07  0.139431593275E-07  0.153480557417E-07  0.168945076365E-07  0.185967779112E-07
  0.204705665643E-07  0.225331554916E-07  0.248035678731E-07  0.273027436188E-07  0.300537324922E-07
  0.330819066912E-07  0.364151948483E-07  0.400843396063E-07  0.441231811467E-07  0.485689692837E-07
  0.534627070036E-07  0.588495286159E-07  0.647791160043E-07  0.713061568159E-07  0.784908488139E-07
  0.863994550431E-07  0.951049149302E-07  0.104687516951E-06  0.115235639068E-06  0.126846563769E-06
  0.139627375215E-06  0.153695946773E-06  0.169182028047E-06  0.186228441411E-06  0.204992399092E-06
  0.225646952943E-06  0.248382590267E-06  0.273408990404E-06  0.300956958281E-06  0.331280552748E-06
  0.364659429310E-06  0.401401418866E-06  0.441845366210E-06  0.486364254470E-06  0.535368644268E-06
  0.589310459315E-06  0.648687153313E-06  0.714046296579E-06  0.785990624637E-06  0.865183595326E-06
  0.952355505603E-06  0.104831022440E-05  0.115393260360E-05  0.127019663530E-05  0.139817443066E-05
  0.153904610292E-05  0.169411064556E-05  0.186479790595E-05  0.205268176460E-05  0.225949464141E-05
  0.248714346237E-05  0.273772723389E-05  0.301355638620E-05  0.331717406414E-05  0.365137956094E-05
  0.401925411081E-05  0.442418927738E-05  0.486991819914E-05  0.536054997924E-05  0.590060753551E-05
  0.649506925889E-05  0.714941486271E-05  0.786967584428E-05  0.866249102189E-05  0.953516765738E-05
  0.104957487250E-04  0.115530869441E-04  0.127169262538E-04  0.139979914783E-04  0.154080870024E-04
  0.169602053630E-04  0.186686467500E-04  0.205491505107E-04  0.226190398602E-04  0.248973811215E-04
  0.274051589494E-04  0.301654691395E-04  0.332037307809E-04  0.365479196873E-04  0.402288252340E-04
  0.442803329390E-04  0.487397353594E-04  0.536480741279E-04  0.590505162355E-04  0.649967679744E-04
  0.715415302899E-04  0.787449996632E-04  0.866734190523E-04  0.953996838633E-04  0.105004008413E-03
  0.115574658884E-03  0.127208759350E-03  0.140013178109E-03  0.154105502251E-03  0.169615109174E-03
  0.186684344591E-03  0.205469817514E-03  0.226143823702E-03  0.248895910165E-03  0.273934594536E-03
  0.301489254435E-03  0.331812203396E-03  0.365180971497E-03  0.401900810558E-03  0.442307445633E-03
  0.486770096567E-03  0.535694795587E-03  0.589528029338E-03  0.648760736347E-03  0.713932693785E-03
  0.785637330419E-03  0.864527006026E-03  0.951318801115E-03  0.104680086469E-02  0.115183937196E-02
  0.126738614853E-02  0.139448702216E-02  0.153429096881E-02  0.168806012478E-02  0.185718074308E-02
  0.204317517811E-02  0.224771498978E-02  0.247263526501E-02  0.271995026209E-02  0.299187049122E-02
  0.329082135269E-02  0.361946346258E-02  0.398071480474E-02  0.437777485640E-02  0.481415084429E-02
  0.529368629676E-02  0.582059206665E-02  0.639948000830E-02  0.703539950032E-02  0.773387701342E-02
  0.850095892942E-02  0.934325782290E-02  0.102680024211E-01  0.112830914597E-01  0.123971516512E-01
  0.136195999808E-01  0.149607105350E-01  0.164316860619E-01  0.180447344398E-01  0.198131502173E-01
  0.217514013533E-01  0.238752212553E-01  0.262017061713E-01  0.287494179367E-01  0.315384920221E-01
  0.345907507537E-01  0.379298215023E-01  0.415812595441E-01  0.455726752014E-01  0.499338647624E-01
  0.546969445686E-01  0.598964875439E-01  0.655696613227E-01  0.717563670310E-01  0.784993776794E-01
  0.858444750588E-01  0.938405839960E-01  0.102539902840E+00  0.111998029137E+00  0.122274079604E+00
  0.133430803801E+00  0.145534691279E+00  0.158656072551E+00  0.172869214916E+00  0.188252415102E+00
  0.204888091765E+00  0.222862882128E+00  0.242267748512E+00  0.263198101947E+00  0.285753951571E+00
  0.310040089758E+00  0.336166323774E+00  0.364247764769E+00  0.394405183693E+00  0.426765440626E+00
  0.461461988260E+00  0.498635440930E+00  0.538434186554E+00  0.581014998741E+00  0.626543578952E+00
  0.675194922364E+00  0.727153354912E+00  0.782612032030E+00  0.841771621692E+00  0.904837816787E+00
  0.972017237366E+00  0.104351119750E+01  0.111950673293E+01  0.120016422734E+01  0.128560095417E+01
  0.137586989076E+01  0.147093328842E+01  0.157080183124E+01  0.167611213381E+01  0.178777525577E+01
  0.190684527559E+01  0.000000000000E+00  0.000000000000E+00  0.000000000000E+00  0.000000000000E+00
  0.000000000000E+00  0.000000000000E+00  0.000000000000E+00  0.000000000000E+00  0.000000000000E+00
  0.000000000000E+00  0.000000000000E+00  0.000000000000E+00  0.000000000000E+00  0.000000000000E+00
  0.000000000000E+00  0.000000000000E+00  0.000000000000E+00  0.000000000000E+00  0.000000000000E+00
  0.000000000000E+00  0.000000000000E+00  0.000000000000E+00  0.000000000000E+00  0.000000000000E+00
  0.000000000000E+00  0.000000000000E+00  0.000000000000E+00  0.000000000000E+00  0.000000000000E+00
  0.000000000000E+00  0.000000000000E+00  0.000000000000E+00  0.000000000000E+00  0.000000000000E+00
  0.000000000000E+00  0.000000000000E+00  0.000000000000E+00  0.000000000000E+00  0.000000000000E+00
  0.000000000000E+00  0.000000000000E+00  0.000000000000E+00  0.000000000000E+00  0.000000000000E+00
  0.000000000000E+00
 ae wavefunction
  0.511954624019E-08  0.558785887252E-08  0.609606600653E-08  0.664781104275E-08  0.724705234825E-08
  0.789809213870E-08  0.860560790471E-08  0.937468661729E-08  0.102108619697E-07  0.111201549356E-07
  0.121091179509E-07  0.131848830502E-07  0.143552143263E-07  0.156285651062E-07  0.170141402821E-07
  0.185219642676E-07  0.201629551014E-07  0.219490052612E-07  0.238930698078E-07  0.260092625348E-07
  0.283129608632E-07  0.308209202829E-07  0.335513992352E-07  0.365242953818E-07  0.397612943341E-07
  0.432860319799E-07  0.471242716755E-07  0.513040976773E-07  0.558561263214E-07  0.608137365952E-07
  0.662133219074E-07  0.720945650221E-07  0.785007383156E-07  0.854790317123E-07  0.930809108787E-07
  0.101362508501E-06  0.110385051725E-06  0.120215329149E-06  0.130926201054E-06  0.142597156922E-06
  0.155314924670E-06  0.169174136441E-06  0.184278056251E-06  0.200739375303E-06  0.218681081304E-06
  0.238237408753E-06  0.259554877789E-06  0.282793429948E-06  0.308127669916E-06  0.335748223283E-06
  0.365863221200E-06  0.398699923901E-06  0.434506496172E-06  0.473553949095E-06  0.516138263737E-06
  0.562582713954E-06  0.613240407088E-06  0.668497063119E-06  0.728774054776E-06  0.794531733229E-06
  0.866273066336E-06  0.944547618914E-06  0.102995590735E-05  0.112315416386E-05  0.122485954903E-05
  0.133585585501E-05  0.145699974554E-05  0.158922758347E-05  0.173356290123E-05  0.189112457464E-05
  0.206313576657E-05  0.225093371262E-05  0.245598042831E-05  0.267987442427E-05  0.292436352413E-05
  0.319135888874E-05  0.348295035978E-05  0.380142324655E-05  0.414927669089E-05  0.452924375808E-05
  0.494431341481E-05  0.539775457044E-05  0.589314237389E-05  0.643438697612E-05  0.702576498741E-05
  0.767195387969E-05  0.837806960668E-05  0.914970773988E-05  0.999298844489E-05  0.109146056524E-04
  0.119218808098E-04  0.130228216336E-04  0.142261863226E-04  0.155415537285E-04  0.169794000301E-04
  0.185511825014E-04  0.202694310176E-04  0.221478480010E-04  0.242014175658E-04  0.264465246932E-04
  0.289010853343E-04  0.315846884187E-04  0.345187508314E-04  0.377266865073E-04  0.412340908953E-04
  0.450689421451E-04  0.492618204841E-04  0.538461473771E-04  0.588584461874E-04  0.643386262034E-04
  0.703302920435E-04  0.768810806172E-04  0.840430279896E-04  0.918729686884E-04  0.100432970186E-03
  0.109790805503E-03  0.120020467112E-03  0.131202725541E-03  0.143425736365E-03  0.156785699503E-03
  0.171387575070E-03  0.187345860283E-03  0.204785432305E-03  0.223842462174E-03  0.244665405379E-03
  0.267416074969E-03  0.292270803486E-03  0.319421700415E-03  0.349078012222E-03  0.381467592536E-03
  0.416838490399E-03  0.455460665002E-03  0.497627835744E-03  0.543659476936E-03  0.593902966867E-03
  0.648735901464E-03  0.708568583144E-03  0.773846695920E-03  0.845054178167E-03  0.922716304856E-03
  0.100740299131E-02  0.109973233086E-02  0.120037437885E-02  0.131005519574E-02  0.142956116171E-02
  0.155974357546E-02  0.170152354929E-02  0.185589721226E-02  0.202394123262E-02  0.220681866983E-02
  0.240578516534E-02  0.262219548003E-02  0.285751038438E-02  0.311330390554E-02  0.339127093279E-02
  0.369323518008E-02  0.402115750097E-02  0.437714454698E-02  0.476345775618E-02  0.518252265318E-02
  0.563693843578E-02  0.612948781680E-02  0.666314708169E-02  0.724109631406E-02  0.786672973139E-02
  0.854366606278E-02  0.927575888849E-02  0.100671068482E-01  0.109220636104E-01  0.118452474807E-01
  0.128415505092E-01  0.139161469390E-01  0.150745008210E-01  0.163223725961E-01  0.176658244270E-01
  0.191112240365E-01  0.206652467860E-01  0.223348756973E-01  0.241273990928E-01  0.260504054936E-01
  0.281117753761E-01  0.303196693468E-01  0.326825122494E-01  0.352089726778E-01  0.379079373343E-01
  0.407884796529E-01  0.438598221088E-01  0.471312916520E-01  0.506122677412E-01  0.543121224922E-01
  0.582401524939E-01  0.624055018746E-01  0.668170762182E-01  0.714834469432E-01  0.764127457551E-01
  0.816125487909E-01  0.870897500906E-01  0.928504240810E-01  0.988996768458E-01  0.105241486087E+00
  0.111878529840E+00  0.118812004191E+00  0.126041430438E+00  0.133564452359E+00  0.141376624522E+00
  0.149471192810E+00  0.157838868684E+00  0.166467599009E+00  0.175342333637E+00  0.184444793309E+00
  0.193753240814E+00  0.203242258740E+00  0.212882537523E+00  0.222640677865E+00  0.232479011958E+00
  0.242355448232E+00  0.252223344649E+00  0.262031415761E+00  0.271723678909E+00  0.281239444876E+00
  0.290513358087E+00  0.299475490699E+00  0.308051493695E+00  0.316162806175E+00  0.323726921916E+00
  0.330657710728E+00  0.336865792714E+00  0.342258967648E+00  0.346742709520E+00  0.350220746247E+00
  0.352595752017E+00  0.353770178184E+00  0.353647232183E+00  0.352131985759E+00  0.349132570673E+00
  0.344561419491E+00  0.338336528294E+00  0.330382737631E+00  0.320633033412E+00  0.309029862767E+00
  0.295526450753E+00  0.280088098767E+00  0.262693445383E+00  0.243335672340E+00  0.222023640085E+00
  0.198782937068E+00  0.173656825127E+00  0.146707060263E+00  0.118014564763E+00  0.876799235503E-01
  0.558236757672E-01  0.225863724617E-01 -0.118716263468E-01 -0.473706371037E-01 -0.837124363357E-01
 -0.120681353483E+00 -0.158045684941E+00 -0.195559449344E+00 -0.232964508948E+00 -0.269993048072E+00
 -0.306370265774E+00 -0.341816878247E+00 -0.376050790227E+00 -0.408787519612E+00 -0.439740052518E+00
 -0.468620241348E+00 -0.495143581670E+00 -0.519036222130E+00 -0.540041032810E+00 -0.557921327293E+00
 -0.572463117452E+00 -0.583477007667E+00 -0.590800137342E+00 -0.594298081847E+00 -0.593866439893E+00
 -0.589431855589E+00 -0.580952344523E+00 -0.568416920771E+00 -0.551844602532E+00 -0.531282903297E+00
 -0.506805912173E+00 -0.478512050043E+00 -0.446521568744E+00 -0.410973843141E+00 -0.372024492402E+00
 -0.329842358598E+00 -0.284606367089E+00 -0.236502295400E+00 -0.185719480404E+00 -0.132447498003E+00
 -0.768728480651E-01 -0.191756721083E-01  0.404734749954E-01  0.101916768859E+00  0.165012105254E+00
  0.229635793752E+00  0.295684750390E+00  0.363078020648E+00  0.431757680215E+00  0.501689509078E+00
  0.572864091780E+00  0.645298930603E+00  0.719041780663E+00  0.794175016173E+00  0.870820659227E+00
  0.949145794127E+00  0.102936827640E+01  0.111176280017E+01  0.119666747107E+01  0.128449105851E+01
  0.137572112837E+01  0.147093328842E+01  0.157080183124E+01  0.167611213381E+01  0.178777525577E+01
  0.190684527559E+01  0.000000000000E+00  0.000000000000E+00  0.000000000000E+00  0.000000000000E+00
  0.000000000000E+00  0.000000000000E+00  0.000000000000E+00  0.000000000000E+00  0.000000000000E+00
  0.000000000000E+00  0.000000000000E+00  0.000000000000E+00  0.000000000000E+00  0.000000000000E+00
  0.000000000000E+00  0.000000000000E+00  0.000000000000E+00  0.000000000000E+00  0.000000000000E+00
  0.000000000000E+00  0.000000000000E+00  0.000000000000E+00  0.000000000000E+00  0.000000000000E+00
  0.000000000000E+00  0.000000000000E+00  0.000000000000E+00  0.000000000000E+00  0.000000000000E+00
  0.000000000000E+00  0.000000000000E+00  0.000000000000E+00  0.000000000000E+00  0.000000000000E+00
  0.000000000000E+00  0.000000000000E+00  0.000000000000E+00  0.000000000000E+00  0.000000000000E+00
  0.000000000000E+00  0.000000000000E+00  0.000000000000E+00  0.000000000000E+00  0.000000000000E+00
  0.000000000000E+00
 End of Dataset
  PAW_PBE Cl 06Sep2000                   
   7.00000000000000     
 parameters from PSCTR are:
   VRHFIN =Cl: s2p5
   LEXCH  = PE
   EATOM  =   409.7259 eV,   30.1140 Ry

   TITEL  = PAW_PBE Cl 06Sep2000
   LULTRA =        F    use ultrasoft PP ?
   IUNSCR =        1    unscreen: 0-lin 1-nonlin 2-no
   RPACOR =    1.500    partial core radius
   POMASS =   35.453; ZVAL   =    7.000    mass and valenz
   RCORE  =    1.900    outmost cutoff radius
   RWIGS  =    2.100; RWIGS  =    1.111    wigner-seitz radius (au A)
   ENMAX  =  262.472; ENMIN  =  196.854 eV
   ICORE  =        2    local potential
   LCOR   =        T    correct aug charges
   LPAW   =        T    paw PP
   EAUG   =  356.192
   DEXC   =    0.000
   RMAX   =    1.945    core radius for proj-oper
   RAUG   =    1.300    factor for augmentation sphere
   RDEP   =    2.020    radius for radial grids
   RDEPT  =    1.678    core radius for aug-charge
 
   Atomic configuration
    6 entries
     n  l   j            E        occ.
     1  0  0.50     -2751.1850   2.0000
     2  0  0.50      -252.6861   2.0000
     2  1  1.50      -191.6157   6.0000
     3  0  0.50       -20.6916   2.0000
     3  1  0.50        -8.5949   5.0000
     3  2  1.50        -8.1635   0.0000
   Description
     l       E           TYP  RCUT    TYP  RCUT
     0    -20.6915656     23  1.900
     0    -22.0521482     23  1.900
     1     -8.5948577     23  1.900
     1     -5.3847331     23  1.900
     2     -8.1634956     23  1.900
   Error from kinetic energy argument (eV)
   NDATA  =      100
   STEP   =   20.000   1.050
  123.      118.      116.      111.      109.      104.      99.4      97.1
  92.5      87.9      85.7      81.2      76.9      72.7      68.6      64.6
  60.7      57.0      53.5      48.4      45.2      42.2      37.9      35.3
  32.7      29.2      26.0      24.0      21.2      18.7      16.5      14.5
  12.6      11.0      9.56      8.28      6.79      5.83      4.73      4.03
  3.23      2.56      2.02      1.58      1.22     0.936     0.708     0.492
 0.362     0.241     0.158     0.110     0.692E-01 0.432E-01 0.251E-01 0.172E-01
 0.132E-01 0.112E-01 0.106E-01 0.104E-01 0.100E-01 0.930E-02 0.825E-02 0.678E-02
 0.548E-02 0.411E-02 0.299E-02 0.219E-02 0.163E-02 0.138E-02 0.127E-02 0.123E-02
 0.119E-02 0.110E-02 0.952E-03 0.791E-03 0.615E-03 0.475E-03 0.378E-03 0.337E-03
 0.320E-03 0.308E-03 0.286E-03 0.245E-03 0.197E-03 0.156E-03 0.131E-03 0.119E-03
 0.114E-03 0.107E-03 0.920E-04 0.758E-04 0.608E-04 0.538E-04 0.509E-04 0.477E-04
 0.412E-04 0.340E-04 0.282E-04 0.260E-04
END of PSCTR-controll parameters
 local part
   98.2657514061040     
  0.30171407E+02  0.30178791E+02  0.30190147E+02  0.30209033E+02  0.30235389E+02
  0.30269126E+02  0.30310128E+02  0.30358249E+02  0.30413313E+02  0.30475109E+02
  0.30543395E+02  0.30617897E+02  0.30698308E+02  0.30784289E+02  0.30875474E+02
  0.30971470E+02  0.31071856E+02  0.31176191E+02  0.31284010E+02  0.31394827E+02
  0.31508138E+02  0.31623420E+02  0.31740132E+02  0.31857715E+02  0.31975597E+02
  0.32093186E+02  0.32209882E+02  0.32325069E+02  0.32438121E+02  0.32548404E+02
  0.32655278E+02  0.32758097E+02  0.32856214E+02  0.32948980E+02  0.33035748E+02
  0.33115877E+02  0.33188727E+02  0.33253668E+02  0.33310080E+02  0.33357353E+02
  0.33394892E+02  0.33422118E+02  0.33438468E+02  0.33443403E+02  0.33436404E+02
  0.33416978E+02  0.33384660E+02  0.33339013E+02  0.33279630E+02  0.33206137E+02
  0.33118197E+02  0.33015505E+02  0.32897795E+02  0.32764841E+02  0.32616456E+02
  0.32452495E+02  0.32272856E+02  0.32077479E+02  0.31866350E+02  0.31639499E+02
  0.31397002E+02  0.31138981E+02  0.30865602E+02  0.30577077E+02  0.30273663E+02
  0.29955664E+02  0.29623424E+02  0.29277332E+02  0.28917819E+02  0.28545358E+02
  0.28160459E+02  0.27763672E+02  0.27355582E+02  0.26936809E+02  0.26508006E+02
  0.26069853E+02  0.25623061E+02  0.25168364E+02  0.24706518E+02  0.24238302E+02
  0.23764508E+02  0.23285945E+02  0.22803431E+02  0.22317794E+02  0.21829866E+02
  0.21340481E+02  0.20850474E+02  0.20360673E+02  0.19871901E+02  0.19384971E+02
  0.18900680E+02  0.18419812E+02  0.17943130E+02  0.17471378E+02  0.17005272E+02
  0.16545504E+02  0.16092736E+02  0.15647599E+02  0.15210691E+02  0.14782572E+02
  0.14363768E+02  0.13954765E+02  0.13556009E+02  0.13167904E+02  0.12790813E+02
  0.12425055E+02  0.12070905E+02  0.11728596E+02  0.11398314E+02  0.11080204E+02
  0.10774364E+02  0.10480851E+02  0.10199679E+02  0.99308189E+01  0.96742017E+01
  0.94297185E+01  0.91972223E+01  0.89765290E+01  0.87674199E+01  0.85696428E+01
  0.83829144E+01  0.82069224E+01  0.80413275E+01  0.78857659E+01  0.77398514E+01
  0.76031780E+01  0.74753225E+01  0.73558464E+01  0.72442994E+01  0.71402208E+01
  0.70431429E+01  0.69525933E+01  0.68680969E+01  0.67891791E+01  0.67153676E+01
  0.66461949E+01  0.65812003E+01  0.65199325E+01  0.64619509E+01  0.64068281E+01
  0.63541511E+01  0.63035235E+01  0.62545663E+01  0.62069199E+01  0.61602450E+01
  0.61142234E+01  0.60685595E+01  0.60229803E+01  0.59772368E+01  0.59311035E+01
  0.58843794E+01  0.58368877E+01  0.57884759E+01  0.57390154E+01  0.56884015E+01
  0.56365525E+01  0.55834094E+01  0.55289352E+01  0.54731139E+01  0.54159494E+01
  0.53574650E+01  0.52977016E+01  0.52367173E+01  0.51745851E+01  0.51113925E+01
  0.50472395E+01  0.49822376E+01  0.49165079E+01  0.48501800E+01  0.47833905E+01
  0.47162813E+01  0.46489985E+01  0.45816908E+01  0.45145078E+01  0.44475995E+01
  0.43811142E+01  0.43151976E+01  0.42499914E+01  0.41856328E+01  0.41222525E+01
  0.40599748E+01  0.39989160E+01  0.39391838E+01  0.38808770E+01  0.38240844E+01
  0.37688848E+01  0.37153462E+01  0.36635258E+01  0.36134699E+01  0.35652132E+01
  0.35187798E+01  0.34741822E+01  0.34314223E+01  0.33904913E+01  0.33513698E+01
  0.33140290E+01  0.32784301E+01  0.32445260E+01  0.32122608E+01  0.31815714E+01
  0.31523874E+01  0.31246323E+01  0.30982243E+01  0.30730767E+01  0.30490989E+01
  0.30261972E+01  0.30042757E+01  0.29832370E+01  0.29629828E+01  0.29434150E+01
  0.29244365E+01  0.29059514E+01  0.28878663E+01  0.28700907E+01  0.28525375E+01
  0.28351238E+01  0.28177711E+01  0.28004062E+01  0.27829612E+01  0.27653742E+01
  0.27475891E+01  0.27295564E+01  0.27112332E+01  0.26925831E+01  0.26735766E+01
  0.26541907E+01  0.26344093E+01  0.26142229E+01  0.25936283E+01  0.25726286E+01
  0.25512327E+01  0.25294553E+01  0.25073165E+01  0.24848411E+01  0.24620588E+01
  0.24390032E+01  0.24157117E+01  0.23922248E+01  0.23685859E+01  0.23448405E+01
  0.23210359E+01  0.22972208E+01  0.22734443E+01  0.22497561E+01  0.22262054E+01
  0.22028409E+01  0.21797101E+01  0.21568589E+01  0.21343314E+01  0.21121692E+01
  0.20904115E+01  0.20690944E+01  0.20482508E+01  0.20279102E+01  0.20080983E+01
  0.19888372E+01  0.19701449E+01  0.19520354E+01  0.19345188E+01  0.19176008E+01
  0.19012834E+01  0.18855645E+01  0.18704379E+01  0.18558941E+01  0.18419197E+01
  0.18284980E+01  0.18156091E+01  0.18032302E+01  0.17913358E+01  0.17798981E+01
  0.17688869E+01  0.17582706E+01  0.17480157E+01  0.17380878E+01  0.17284516E+01
  0.17190714E+01  0.17099111E+01  0.17009348E+01  0.16921071E+01  0.16833932E+01
  0.16747594E+01  0.16661734E+01  0.16576041E+01  0.16490224E+01  0.16404010E+01
  0.16317149E+01  0.16229415E+01  0.16140603E+01  0.16050537E+01  0.15959067E+01
  0.15866070E+01  0.15771450E+01  0.15675139E+01  0.15577098E+01  0.15477312E+01
  0.15375796E+01  0.15272588E+01  0.15167752E+01  0.15061374E+01  0.14953564E+01
  0.14844450E+01  0.14734179E+01  0.14622917E+01  0.14510842E+01  0.14398144E+01
  0.14285025E+01  0.14171695E+01  0.14058369E+01  0.13945266E+01  0.13832605E+01
  0.13720607E+01  0.13609487E+01  0.13499458E+01  0.13390722E+01  0.13283477E+01
  0.13177906E+01  0.13074184E+01  0.12972468E+01  0.12872903E+01  0.12775617E+01
  0.12680722E+01  0.12588310E+01  0.12498455E+01  0.12411215E+01  0.12326625E+01
  0.12244703E+01  0.12165448E+01  0.12088840E+01  0.12014841E+01  0.11943395E+01
  0.11874431E+01  0.11807860E+01  0.11743580E+01  0.11681474E+01  0.11621413E+01
  0.11563258E+01  0.11506859E+01  0.11452062E+01  0.11398701E+01  0.11346609E+01
  0.11295617E+01  0.11245550E+01  0.11196237E+01  0.11147508E+01  0.11099195E+01
  0.11051135E+01  0.11003172E+01  0.10955156E+01  0.10906947E+01  0.10858412E+01
  0.10809432E+01  0.10759898E+01  0.10709714E+01  0.10658795E+01  0.10607073E+01
  0.10554490E+01  0.10501005E+01  0.10446590E+01  0.10391231E+01  0.10334929E+01
  0.10277696E+01  0.10219560E+01  0.10160561E+01  0.10100750E+01  0.10040190E+01
  0.99789539E+00  0.99171255E+00  0.98547957E+00  0.97920634E+00  0.97290335E+00
  0.96658163E+00  0.96025259E+00  0.95392791E+00  0.94761943E+00  0.94133900E+00
  0.93509842E+00  0.92890928E+00  0.92278284E+00  0.91672998E+00  0.91076103E+00
  0.90488572E+00  0.89911309E+00  0.89345137E+00  0.88790798E+00  0.88248939E+00
  0.87720113E+00  0.87204770E+00  0.86703261E+00  0.86215829E+00  0.85742611E+00
  0.85283640E+00  0.84838841E+00  0.84408039E+00  0.83990958E+00  0.83587225E+00
  0.83196378E+00  0.82817867E+00  0.82451061E+00  0.82095261E+00  0.81749698E+00
  0.81413551E+00  0.81085947E+00  0.80765976E+00  0.80452697E+00  0.80145149E+00
  0.79842359E+00  0.79543351E+00  0.79247156E+00  0.78952821E+00  0.78659415E+00
  0.78366043E+00  0.78071846E+00  0.77776016E+00  0.77477800E+00  0.77176503E+00
  0.76871500E+00  0.76562236E+00  0.76248230E+00  0.75929082E+00  0.75604472E+00
  0.75274163E+00  0.74938001E+00  0.74595914E+00  0.74247915E+00  0.73894097E+00
  0.73534631E+00  0.73169767E+00  0.72799823E+00  0.72425190E+00  0.72046317E+00
  0.71663715E+00  0.71277944E+00  0.70889610E+00  0.70499357E+00  0.70107861E+00
  0.69715822E+00  0.69323955E+00  0.68932988E+00  0.68543648E+00  0.68156659E+00
  0.67772733E+00  0.67392562E+00  0.67016814E+00  0.66646125E+00  0.66281093E+00
  0.65922271E+00  0.65570166E+00  0.65225232E+00  0.64887865E+00  0.64558402E+00
  0.64237116E+00  0.63924220E+00  0.63619856E+00  0.63324103E+00  0.63036973E+00
  0.62758412E+00  0.62488302E+00  0.62226461E+00  0.61972649E+00  0.61726567E+00
  0.61487860E+00  0.61256126E+00  0.61030916E+00  0.60811741E+00  0.60598075E+00
  0.60389363E+00  0.60185025E+00  0.59984464E+00  0.59787067E+00  0.59592218E+00
  0.59399296E+00  0.59207689E+00  0.59016792E+00  0.58826017E+00  0.58634799E+00
  0.58442597E+00  0.58248905E+00  0.58053249E+00  0.57855197E+00  0.57654361E+00
  0.57450399E+00  0.57243019E+00  0.57031979E+00  0.56817091E+00  0.56598221E+00
  0.56375288E+00  0.56148268E+00  0.55917187E+00  0.55682128E+00  0.55443223E+00
  0.55200653E+00  0.54954648E+00  0.54705481E+00  0.54453467E+00  0.54198956E+00
  0.53942334E+00  0.53684013E+00  0.53424432E+00  0.53164049E+00  0.52903334E+00
  0.52642773E+00  0.52382851E+00  0.52124057E+00  0.51866876E+00  0.51611781E+00
  0.51359235E+00  0.51109680E+00  0.50863537E+00  0.50621200E+00  0.50383034E+00
  0.50149369E+00  0.49920501E+00  0.49696685E+00  0.49478135E+00  0.49265025E+00
  0.49057483E+00  0.48855592E+00  0.48659391E+00  0.48468874E+00  0.48283991E+00
  0.48104646E+00  0.47930705E+00  0.47761988E+00  0.47598281E+00  0.47439330E+00
  0.47284850E+00  0.47134524E+00  0.46988010E+00  0.46844940E+00  0.46704929E+00
  0.46567575E+00  0.46432464E+00  0.46299176E+00  0.46167285E+00  0.46036368E+00
  0.45906004E+00  0.45775783E+00  0.45645305E+00  0.45514188E+00  0.45382067E+00
  0.45248601E+00  0.45113477E+00  0.44976406E+00  0.44837134E+00  0.44695439E+00
  0.44551133E+00  0.44404066E+00  0.44254123E+00  0.44101229E+00  0.43945345E+00
  0.43786471E+00  0.43624645E+00  0.43459941E+00  0.43292469E+00  0.43122374E+00
  0.42949832E+00  0.42775050E+00  0.42598264E+00  0.42419734E+00  0.42239742E+00
  0.42058591E+00  0.41876600E+00  0.41694099E+00  0.41511428E+00  0.41328934E+00
  0.41146966E+00  0.40965872E+00  0.40785994E+00  0.40607670E+00  0.40431224E+00
  0.40256967E+00  0.40085194E+00  0.39916178E+00  0.39750171E+00  0.39587401E+00
  0.39428067E+00  0.39272342E+00  0.39120368E+00  0.38972255E+00  0.38828083E+00
  0.38687899E+00  0.38551717E+00  0.38419520E+00  0.38291258E+00  0.38166851E+00
  0.38046186E+00  0.37929124E+00  0.37815498E+00  0.37705114E+00  0.37597757E+00
  0.37493188E+00  0.37391151E+00  0.37291374E+00  0.37193572E+00  0.37097449E+00
  0.37002702E+00  0.36909024E+00  0.36816106E+00  0.36723639E+00  0.36631322E+00
  0.36538858E+00  0.36445961E+00  0.36352358E+00  0.36257791E+00  0.36162020E+00
  0.36064823E+00  0.35966003E+00  0.35865383E+00  0.35762813E+00  0.35658168E+00
  0.35551352E+00  0.35442294E+00  0.35330952E+00  0.35217313E+00  0.35101390E+00
  0.34983226E+00  0.34862889E+00  0.34740473E+00  0.34616099E+00  0.34489908E+00
  0.34362067E+00  0.34232760E+00  0.34102189E+00  0.33970574E+00  0.33838147E+00
  0.33705150E+00  0.33571835E+00  0.33438459E+00  0.33305283E+00  0.33172570E+00
  0.33040578E+00  0.32909563E+00  0.32779776E+00  0.32651454E+00  0.32524828E+00
  0.32400111E+00  0.32277504E+00  0.32157187E+00  0.32039323E+00  0.31924054E+00
  0.31811500E+00  0.31701758E+00  0.31594901E+00  0.31490978E+00  0.31390014E+00
  0.31292010E+00  0.31196941E+00  0.31104761E+00  0.31015396E+00  0.30928755E+00
  0.30844720E+00  0.30763158E+00  0.30683914E+00  0.30606815E+00  0.30531676E+00
  0.30458296E+00  0.30386465E+00  0.30315960E+00  0.30246555E+00  0.30178018E+00
  0.30110113E+00  0.30042606E+00  0.29975263E+00  0.29907855E+00  0.29840161E+00
  0.29771966E+00  0.29703065E+00  0.29633269E+00  0.29562398E+00  0.29490293E+00
  0.29416809E+00  0.29341820E+00  0.29265219E+00  0.29186921E+00  0.29106860E+00
  0.29024994E+00  0.28941299E+00  0.28855775E+00  0.28768443E+00  0.28679345E+00
  0.28588543E+00  0.28496120E+00  0.28402176E+00  0.28306829E+00  0.28210216E+00
  0.28112486E+00  0.28013803E+00  0.27914340E+00  0.27814282E+00  0.27713822E+00
  0.27613157E+00  0.27512491E+00  0.27412025E+00  0.27311964E+00  0.27212511E+00
  0.27113861E+00  0.27016208E+00  0.26919736E+00  0.26824618E+00  0.26731018E+00
  0.26639088E+00  0.26548962E+00  0.26460764E+00  0.26374596E+00  0.26290546E+00
  0.26208683E+00  0.26129058E+00  0.26051703E+00  0.25976629E+00  0.25903829E+00
  0.25833279E+00  0.25764934E+00  0.25698732E+00  0.25634592E+00  0.25572419E+00
  0.25512101E+00  0.25453511E+00  0.25396510E+00  0.25340949E+00  0.25286665E+00
  0.25233491E+00  0.25181249E+00  0.25129761E+00  0.25078842E+00  0.25028307E+00
  0.24977971E+00  0.24927652E+00  0.24877170E+00  0.24826354E+00  0.24775035E+00
  0.24723058E+00  0.24670274E+00  0.24616549E+00  0.24561758E+00  0.24505794E+00
  0.24448563E+00  0.24389984E+00  0.24329998E+00  0.24268557E+00  0.24205634E+00
  0.24141217E+00  0.24075311E+00  0.24007938E+00  0.23939139E+00  0.23868968E+00
  0.23797495E+00  0.23724805E+00  0.23650999E+00  0.23576187E+00  0.23500492E+00
  0.23424048E+00  0.23346998E+00  0.23269489E+00  0.23191677E+00  0.23113722E+00
  0.23035785E+00  0.22958030E+00  0.22880618E+00  0.22803711E+00  0.22727465E+00
  0.22652031E+00  0.22577555E+00  0.22504175E+00  0.22432018E+00  0.22361201E+00
  0.22291830E+00  0.22224000E+00  0.22157790E+00  0.22093265E+00  0.22030477E+00
  0.21969464E+00  0.21910245E+00  0.21852827E+00  0.21797200E+00  0.21743341E+00
  0.21691210E+00  0.21640753E+00  0.21591904E+00  0.21544582E+00  0.21498694E+00
  0.21454136E+00  0.21410796E+00  0.21368549E+00  0.21327266E+00  0.21286809E+00
  0.21247037E+00  0.21207805E+00  0.21168963E+00  0.21130365E+00  0.21091862E+00
  0.21053308E+00  0.21014561E+00  0.20975484E+00  0.20935943E+00  0.20895816E+00
  0.20854986E+00  0.20813346E+00  0.20770800E+00  0.20727265E+00  0.20682667E+00
  0.20636946E+00  0.20590055E+00  0.20541963E+00  0.20492647E+00  0.20442104E+00
  0.20390340E+00  0.20337377E+00  0.20283250E+00  0.20228005E+00  0.20171704E+00
  0.20114416E+00  0.20056225E+00  0.19997222E+00  0.19937510E+00  0.19877197E+00
  0.19816399E+00  0.19755239E+00  0.19693841E+00  0.19632336E+00  0.19570854E+00
  0.19509527E+00  0.19448486E+00  0.19387860E+00  0.19327775E+00  0.19268352E+00
  0.19209708E+00  0.19151952E+00  0.19095186E+00  0.19039503E+00  0.18984987E+00
  0.18931710E+00  0.18879736E+00  0.18829115E+00  0.18779887E+00  0.18732078E+00
  0.18685705E+00  0.18640768E+00  0.18597259E+00  0.18555155E+00  0.18514422E+00
  0.18475016E+00  0.18436879E+00  0.18399945E+00  0.18364138E+00  0.18329372E+00
  0.18295554E+00  0.18262582E+00  0.18230352E+00  0.18198751E+00  0.18167664E+00
  0.18136973E+00  0.18106559E+00  0.18076301E+00  0.18046082E+00  0.18015782E+00
  0.17985289E+00  0.17954490E+00  0.17923282E+00  0.17891565E+00  0.17859246E+00
  0.17826241E+00  0.17792474E+00  0.17757879E+00  0.17722399E+00  0.17685988E+00
  0.17648611E+00  0.17610242E+00  0.17570867E+00  0.17530485E+00  0.17489105E+00
  0.17446744E+00  0.17403435E+00  0.17359216E+00  0.17314139E+00  0.17268263E+00
  0.17221657E+00  0.17174398E+00  0.17126567E+00  0.17078256E+00  0.17029559E+00
  0.16980576E+00  0.16931409E+00  0.16882164E+00  0.16832948E+00  0.16783866E+00
  0.16735024E+00  0.16686528E+00  0.16638479E+00  0.16590973E+00  0.16544106E+00
  0.16497963E+00  0.16452627E+00  0.16408171E+00  0.16364662E+00  0.16322158E+00
  0.16280707E+00  0.16240348E+00  0.16201113E+00  0.16163021E+00  0.16126081E+00
  0.16090295E+00  0.16055652E+00  0.16022132E+00  0.15989706E+00  0.15958336E+00
  0.15927974E+00  0.15898564E+00  0.15870043E+00  0.15842341E+00  0.15815379E+00
  0.15789077E+00  0.15763346E+00  0.15738095E+00  0.15713231E+00  0.15688658E+00
  0.15664278E+00  0.15639995E+00  0.15615712E+00  0.15591334E+00  0.15566770E+00
  0.15541929E+00  0.15516729E+00  0.15491089E+00  0.15464937E+00  0.15438205E+00
  0.15410833E+00  0.15382770E+00  0.15353970E+00  0.15324400E+00  0.15294031E+00
  0.15262846E+00  0.15230835E+00  0.15198000E+00  0.15164348E+00  0.15129899E+00
  0.15094678E+00  0.15058721E+00  0.15022069E+00  0.14984774E+00  0.14946893E+00
  0.14908489E+00  0.14869632E+00  0.14830395E+00  0.14790857E+00  0.14751099E+00
  0.14711205E+00  0.14671263E+00  0.14631357E+00  0.14591575E+00  0.14552003E+00
  0.14512725E+00  0.14473823E+00  0.14435377E+00  0.14397459E+00  0.14360142E+00
  0.14323489E+00  0.14287560E+00  0.14252406E+00  0.14218073E+00  0.14184598E+00
  0.14152013E+00  0.14120339E+00  0.14089590E+00  0.14059774E+00  0.14030887E+00
  0.14002920E+00  0.13975855E+00  0.13949666E+00  0.13924319E+00  0.13899774E+00
  0.13875984E+00  0.13852896E+00  0.13830452E+00  0.13808586E+00  0.13787231E+00
  0.13766314E+00  0.13745762E+00  0.13725497E+00  0.13705441E+00  0.13685514E+00
  0.13665637E+00  0.13645733E+00  0.13625725E+00  0.13605537E+00  0.13585100E+00
  0.13564345E+00  0.13543209E+00  0.13521634E+00  0.13499566E+00  0.13476959E+00
  0.13453772E+00  0.13429971E+00  0.13405530E+00  0.13380428E+00  0.13354652E+00
  0.13328199E+00  0.13301070E+00  0.13273275E+00  0.13244830E+00  0.13215759E+00
 gradient corrections used for XC
           5
 core charge-density (partial)
  0.24624570E+00  0.24616843E+00  0.24593676E+00  0.24555108E+00  0.24501205E+00
  0.24432062E+00  0.24347798E+00  0.24248556E+00  0.24134508E+00  0.24005849E+00
  0.23862799E+00  0.23705602E+00  0.23534523E+00  0.23349853E+00  0.23151903E+00
  0.22941004E+00  0.22717508E+00  0.22481786E+00  0.22234227E+00  0.21975238E+00
  0.21705239E+00  0.21424669E+00  0.21133977E+00  0.20833629E+00  0.20524098E+00
  0.20205870E+00  0.19879439E+00  0.19545309E+00  0.19203988E+00  0.18855990E+00
  0.18501835E+00  0.18142046E+00  0.17777145E+00  0.17407657E+00  0.17034107E+00
  0.16657017E+00  0.16276906E+00  0.15894291E+00  0.15509682E+00  0.15123584E+00
  0.14736495E+00  0.14348906E+00  0.13961296E+00  0.13574137E+00  0.13187890E+00
  0.12803004E+00  0.12419915E+00  0.12039048E+00  0.11660814E+00  0.11285607E+00
  0.10913811E+00  0.10545791E+00  0.10181898E+00  0.98224663E-01  0.94678144E-01
  0.91182438E-01  0.87740387E-01  0.84354667E-01  0.81027777E-01  0.77762044E-01
  0.74559619E-01  0.71422483E-01  0.68352437E-01  0.65351115E-01  0.62419975E-01
  0.59560309E-01  0.56773239E-01  0.54059724E-01  0.51420558E-01  0.48856379E-01
  0.46367670E-01  0.43954760E-01  0.41617834E-01  0.39356933E-01  0.37171959E-01
  0.35062681E-01  0.33028742E-01  0.31069660E-01  0.29184836E-01  0.27373560E-01
  0.25635013E-01  0.23968278E-01  0.22372343E-01  0.20846105E-01  0.19388379E-01
  0.17997902E-01  0.16673342E-01  0.15413297E-01  0.14216310E-01  0.13080865E-01
  0.12005401E-01  0.10988313E-01  0.10027958E-01  0.91226623E-02  0.82707240E-02
  0.74704200E-02  0.67200104E-02  0.60177435E-02  0.53618599E-02  0.47505975E-02
  0.41821957E-02  0.36548993E-02  0.31669625E-02  0.27166528E-02  0.23022542E-02
  0.19220709E-02  0.15744300E-02  0.12576850E-02  0.97021793E-03  0.71044228E-03
  0.47680515E-03  0.26778942E-03  0.81915694E-04 -0.82256008E-04 -0.22612467E-03
 -0.35104694E-03 -0.45833597E-03 -0.54926039E-03 -0.62504352E-03 -0.68686270E-03
 -0.73584881E-03 -0.77308596E-03 -0.79961126E-03 -0.81641483E-03 -0.82443988E-03
 -0.82458294E-03 -0.81769425E-03 -0.80457818E-03 -0.78599388E-03 -0.76265588E-03
 -0.73523498E-03 -0.70435903E-03 -0.67061392E-03 -0.63454464E-03 -0.59665628E-03
 -0.55741532E-03 -0.51725069E-03 -0.47655517E-03 -0.43568657E-03 -0.39496913E-03
 -0.35469486E-03 -0.31512492E-03 -0.27649103E-03 -0.23899686E-03 -0.20281945E-03
 -0.16811065E-03 -0.13499850E-03 -0.10358867E-03 -0.73965813E-04 -0.46194959E-04
 -0.20322870E-04  0.36206333E-05  0.25621373E-04  0.45679539E-04  0.63808452E-04
  0.80033359E-04  0.94390270E-04  0.10692483E-03  0.11769125E-03  0.12675125E-03
  0.13417304E-03  0.14003044E-03  0.14440192E-03  0.14736973E-03  0.14901914E-03
  0.14943764E-03  0.14871425E-03  0.14693882E-03  0.14420143E-03  0.14059181E-03
  0.13619882E-03  0.13110993E-03  0.12541083E-03  0.11918500E-03  0.11251337E-03
  0.10547398E-03  0.98141734E-04  0.90588155E-04  0.82881172E-04  0.75084965E-04
  0.67259829E-04  0.59462072E-04  0.51743946E-04  0.44153602E-04  0.36735076E-04
  0.29528298E-04  0.22569120E-04  0.15889376E-04  0.95169468E-05  0.34758584E-05
 -0.22136149E-05 -0.75348273E-05 -0.12474626E-04 -0.17023206E-04 -0.21173952E-04
 -0.24923274E-04 -0.28270436E-04 -0.31217379E-04 -0.33768535E-04 -0.35930649E-04
 -0.37712586E-04 -0.39125144E-04 -0.40180872E-04 -0.40893877E-04 -0.41279648E-04
 -0.41354868E-04 -0.41137243E-04 -0.40645327E-04 -0.39898361E-04 -0.38916103E-04
 -0.37718686E-04 -0.36326460E-04 -0.34759861E-04 -0.33039275E-04 -0.31184913E-04
 -0.29216701E-04 -0.27154166E-04 -0.25016344E-04 -0.22821684E-04 -0.20587971E-04
 -0.18332251E-04 -0.16070768E-04 -0.13818907E-04 -0.11591145E-04 -0.94010147E-05
 -0.72610710E-05 -0.51828655E-05 -0.31769311E-05 -0.12527715E-05  0.58114224E-06
  0.23173685E-05  0.39494864E-05  0.54720807E-05  0.68807229E-05  0.81719457E-05
  0.93432146E-05  0.10392895E-04  0.11320214E-04  0.12125222E-04  0.12808751E-04
  0.13372367E-04  0.13818322E-04  0.14149509E-04  0.14369409E-04  0.14482039E-04
  0.14491903E-04  0.14403937E-04  0.14223459E-04  0.13956115E-04  0.13607831E-04
  0.13184759E-04  0.12693230E-04  0.12139708E-04  0.11530738E-04  0.10872907E-04
  0.10172799E-04  0.94369545E-05  0.86718325E-05  0.78837742E-05  0.70789697E-05
  0.62634266E-05  0.54429417E-05  0.46230749E-05  0.38091259E-05  0.30061138E-05
  0.22187586E-05  0.14514665E-05  0.70831632E-06 -0.69500494E-08 -0.69093581E-06
 -0.13405944E-05 -0.19532327E-05 -0.25265115E-05 -0.30584440E-05 -0.35473928E-05
 -0.39920642E-05 -0.43915006E-05 -0.47450724E-05 -0.50524668E-05 -0.53136759E-05
 -0.55289838E-05 -0.56989521E-05 -0.58244042E-05 -0.59064089E-05 -0.59462636E-05
 -0.59454765E-05 -0.59057478E-05 -0.58289517E-05 -0.57171173E-05 -0.55724092E-05
 -0.53971092E-05 -0.51935966E-05 -0.49643300E-05 -0.47118286E-05 -0.44386543E-05
 -0.41473943E-05 -0.38406437E-05 -0.35209898E-05 -0.31909961E-05 -0.28531874E-05
 -0.25100364E-05 -0.21639501E-05 -0.18172577E-05 -0.14721996E-05 -0.11309171E-05
 -0.79544304E-06 -0.46769390E-06 -0.14946237E-06  0.15758864E-06  0.45193119E-06
  0.73217633E-06  0.99707726E-06  0.12455314E-05  0.14765818E-05  0.16894168E-05
  0.18833701E-05  0.20579189E-05  0.22126816E-05  0.23474149E-05  0.24620099E-05
  0.25564877E-05  0.26309946E-05  0.26857958E-05  0.27212703E-05  0.27379034E-05
  0.27362801E-05  0.27170782E-05  0.26810600E-05  0.26290649E-05  0.25620012E-05
  0.24808385E-05  0.23865988E-05  0.22803486E-05  0.21631911E-05  0.20362575E-05
  0.19006996E-05  0.17576814E-05  0.16083721E-05  0.14539384E-05  0.12955376E-05
  0.11343108E-05  0.97137635E-06  0.80782397E-06  0.64470902E-06  0.48304724E-06
  0.32380992E-06  0.16791949E-06  0.16245619E-07 -0.13039834E-06 -0.27125835E-06
 -0.40564222E-06 -0.53292180E-06 -0.65253453E-06 -0.76398472E-06 -0.86684422E-06
 -0.96075283E-06 -0.10454181E-05 -0.11206149E-05 -0.11861845E-05 -0.12420333E-05
 -0.12881311E-05 -0.13245095E-05 -0.13512592E-05 -0.13685278E-05 -0.13765169E-05
 -0.13754790E-05 -0.13657145E-05 -0.13475678E-05 -0.13214246E-05 -0.12877071E-05
 -0.12468711E-05 -0.11994019E-05 -0.11458099E-05 -0.10866274E-05 -0.10224042E-05
 -0.95370348E-06 -0.88109854E-06 -0.80516844E-06 -0.72649448E-06 -0.64565657E-06
 -0.56322969E-06 -0.47978055E-06 -0.39586437E-06 -0.31202187E-06 -0.22877642E-06
 -0.14663135E-06 -0.66067541E-07  0.12458849E-07  0.88518378E-07  0.16171013E-06
  0.23166327E-06  0.29803841E-06  0.36052868E-06  0.41886062E-06  0.47279483E-06
  0.52212639E-06  0.56668506E-06  0.60633528E-06  0.64097592E-06  0.67053987E-06
  0.69499342E-06  0.71433548E-06  0.72859658E-06  0.73783776E-06  0.74214925E-06
  0.74164910E-06  0.73648159E-06  0.72681561E-06  0.71284283E-06  0.69477596E-06
  0.67284674E-06  0.64730402E-06  0.61841171E-06  0.58644675E-06  0.55169702E-06
  0.51445929E-06  0.47503712E-06  0.43373883E-06  0.39087547E-06  0.34675884E-06
  0.30169959E-06  0.25600533E-06  0.20997883E-06  0.16391635E-06  0.11810598E-06
  0.72826112E-07  0.28344059E-07 -0.15085315E-07 -0.57220776E-07 -0.97835811E-07
 -0.13671960E-06 -0.17367786E-06 -0.20853359E-06 -0.24112762E-06 -0.27131916E-06
 -0.29898608E-06 -0.32402518E-06 -0.34635229E-06 -0.36590226E-06 -0.38262882E-06
 -0.39650437E-06 -0.40751963E-06 -0.41568319E-06 -0.42102097E-06 -0.42357560E-06
 -0.42340570E-06 -0.42058512E-06 -0.41520203E-06 -0.40735803E-06 -0.39716715E-06
 -0.38475486E-06 -0.37025695E-06 -0.35381846E-06 -0.33559253E-06 -0.31573927E-06
 -0.29442458E-06 -0.27181901E-06 -0.24809657E-06 -0.22343358E-06 -0.19800757E-06
 -0.17199612E-06 -0.14557580E-06 -0.11892112E-06 -0.92203504E-07 -0.65590350E-07
 -0.39244089E-07 -0.13321336E-07  0.12027918E-07  0.36661050E-07  0.60443486E-07
  0.83249313E-07  0.10496183E-06  0.12547402E-06  0.14468895E-06  0.16252012E-06
  0.17889173E-06  0.19373885E-06  0.20700754E-06  0.21865494E-06  0.22864921E-06
  0.23696946E-06  0.24360563E-06  0.24855824E-06  0.25183816E-06  0.25346624E-06
  0.25347300E-06  0.25189815E-06  0.24879013E-06  0.24420564E-06  0.23820904E-06
  0.23087178E-06  0.22227183E-06  0.21249299E-06  0.20162429E-06  0.18975927E-06
  0.17699533E-06  0.16343306E-06  0.14917551E-06  0.13432750E-06  0.11899500E-06
  0.10328439E-06  0.87301825E-07  0.71152615E-07  0.54940571E-07  0.38767426E-07
  0.22732261E-07  0.69309653E-08 -0.85442741E-08 -0.23605444E-07 -0.38169144E-07
 -0.52156985E-07 -0.65495950E-07 -0.78118710E-07 -0.89963905E-07 -0.10097637E-06
 -0.11110735E-06 -0.12031460E-06 -0.12856254E-06 -0.13582230E-06 -0.14207174E-06
 -0.14729540E-06 -0.15148450E-06 -0.15463679E-06 -0.15675644E-06 -0.15785384E-06
 -0.15794544E-06 -0.15705345E-06 -0.15520564E-06 -0.15243499E-06 -0.14877940E-06
 -0.14428133E-06 -0.13898746E-06 -0.13294830E-06 -0.12621777E-06 -0.11885286E-06
 -0.11091312E-06 -0.10246035E-06 -0.93558078E-07 -0.84271183E-07 -0.74665465E-07
 -0.64807213E-07 -0.54762799E-07 -0.44598271E-07 -0.34378952E-07 -0.24169068E-07
 -0.14031371E-07 -0.40267988E-08  0.57858639E-08  0.15350291E-07  0.24612907E-07
  0.33523151E-07  0.42033720E-07  0.50100787E-07  0.57684189E-07  0.64747595E-07
  0.71258643E-07  0.77189051E-07  0.82514704E-07  0.87215705E-07  0.91276411E-07
  0.94685436E-07  0.97435627E-07  0.99524017E-07  0.10095176E-06  0.10172402E-06
  0.10184988E-06  0.10134218E-06  0.10021738E-06  0.98495344E-07  0.96199204E-07
  0.93355108E-07  0.89992014E-07  0.86141447E-07  0.81837263E-07  0.77115385E-07
  0.72013547E-07  0.66571023E-07  0.60828359E-07  0.54827098E-07  0.48609506E-07
  0.42218300E-07  0.35696383E-07  0.29086570E-07  0.22431340E-07  0.15772575E-07
  0.91513242E-08  0.26075668E-08 -0.38200068E-08 -0.10094205E-07 -0.16179531E-07
 -0.22042365E-07 -0.27651126E-07 -0.32976431E-07 -0.37991222E-07 -0.42670885E-07
 -0.46993356E-07 -0.50939194E-07 -0.54491656E-07 -0.57636740E-07 -0.60363215E-07
 -0.62662635E-07 -0.64529336E-07 -0.65960412E-07 -0.66955680E-07 -0.67517626E-07
 -0.67651338E-07 -0.67364423E-07 -0.66666909E-07 -0.65571139E-07 -0.64091649E-07
 -0.62245037E-07 -0.60049819E-07 -0.57526283E-07 -0.54696327E-07 -0.51583297E-07
 -0.48211815E-07 -0.44607604E-07 -0.40797313E-07 -0.36808333E-07 -0.32668620E-07
 -0.28406509E-07 -0.24050539E-07 -0.19629274E-07 -0.15171127E-07 -0.10704192E-07
 -0.62560784E-08 -0.18537533E-08  0.24766119E-08  0.67097840E-08  0.10821604E-07
  0.14789116E-07  0.18590677E-07  0.22206073E-07  0.25616608E-07  0.28805192E-07
  0.31756413E-07  0.34456600E-07  0.36893874E-07  0.39058185E-07  0.40941340E-07
  0.42537017E-07  0.43840770E-07  0.44850018E-07  0.45564030E-07  0.45983892E-07
  0.46112467E-07  0.45954346E-07  0.45515785E-07  0.44804639E-07  0.43830286E-07
  0.42603536E-07  0.41136545E-07  0.39442712E-07  0.37536578E-07  0.35433713E-07
  0.33150606E-07  0.30704547E-07  0.28113504E-07  0.25396006E-07  0.22571018E-07
  0.19657816E-07  0.16675867E-07  0.13644706E-07  0.10583816E-07  0.75125104E-08
  0.44498179E-08  0.14143732E-08 -0.15756900E-08 -0.45028401E-08 -0.73502436E-08
 -0.10101855E-07 -0.12742499E-07 -0.15257950E-07 -0.17634999E-07 -0.19861517E-07
 -0.21926510E-07 -0.23820165E-07 -0.25533888E-07 -0.27060336E-07 -0.28393441E-07
 -0.29528421E-07 -0.30461786E-07 -0.31191342E-07 -0.31716176E-07 -0.32036642E-07
 -0.32154335E-07 -0.32072061E-07 -0.31793798E-07 -0.31324651E-07 -0.30670803E-07
 -0.29839457E-07 -0.28838774E-07 -0.27677810E-07 -0.26366440E-07 -0.24915291E-07
 -0.23335657E-07 -0.21639423E-07 -0.19838984E-07 -0.17947155E-07 -0.15977093E-07
 -0.13942205E-07 -0.11856066E-07 -0.97323334E-08 -0.75846593E-08 -0.54266115E-08
 -0.32715902E-08 -0.11327500E-08  0.97707582E-09  0.30454482E-08  0.50603911E-08
  0.70104566E-08  0.88847852E-08  0.10673163E-07  0.12366070E-07  0.13954733E-07
  0.15431156E-07  0.16788168E-07  0.18019441E-07  0.19119523E-07  0.20083853E-07
  0.20908773E-07  0.21591540E-07  0.22130320E-07  0.22524191E-07  0.22773128E-07
  0.22877993E-07  0.22840514E-07  0.22663255E-07  0.22349595E-07  0.21903689E-07
  0.21330429E-07  0.20635407E-07  0.19824863E-07  0.18905643E-07  0.17885144E-07
  0.16771260E-07  0.15572326E-07  0.14297062E-07  0.12954510E-07  0.11553979E-07
  0.10104980E-07  0.86171650E-08  0.71002685E-08  0.55640451E-08  0.40182107E-08
  0.24723833E-08  0.93602694E-09 -0.58160398E-09 -0.20715173E-08 -0.35250337E-08
 -0.49338345E-08 -0.62900062E-08 -0.75860825E-08 -0.88150824E-08 -0.99705448E-08
 -0.11046560E-07 -0.12037796E-07 -0.12939522E-07 -0.13747630E-07 -0.14458645E-07
 -0.15069741E-07 -0.15578746E-07 -0.15984143E-07 -0.16285072E-07 -0.16481326E-07
 -0.16573335E-07 -0.16562162E-07 -0.16449481E-07 -0.16237560E-07 -0.15929236E-07
 -0.15527891E-07 -0.15037422E-07 -0.14462208E-07 -0.13807077E-07 -0.13077271E-07
 -0.12278407E-07 -0.11416434E-07 -0.10497597E-07 -0.95283896E-08 -0.85155144E-08
 -0.74658366E-08 -0.63863410E-08 -0.52840872E-08 -0.41661658E-08 -0.30396547E-08
 -0.19115761E-08 -0.78885498E-09  0.32172171E-09  0.14135442E-08  0.24802173E-08
  0.35155961E-08  0.45138196E-08  0.54693418E-08  0.63769610E-08  0.72318458E-08
  0.80295594E-08  0.87660800E-08  0.94378197E-08  0.10041639E-07  0.10574860E-07
  0.11035276E-07  0.11421155E-07  0.11731248E-07  0.11964785E-07  0.12121475E-07
  0.12201500E-07  0.12205505E-07  0.12134592E-07  0.11990302E-07  0.11774599E-07
  0.11489856E-07  0.11138831E-07  0.10724644E-07  0.10250757E-07  0.97209431E-08
  0.91392611E-08  0.85100269E-08  0.78377831E-08  0.71272681E-08  0.63833841E-08
  0.56111653E-08  0.48157455E-08  0.40023249E-08  0.31761379E-08  0.23424207E-08
  0.15063794E-08  0.67315902E-09 -0.15218735E-09 -0.96472751E-09 -0.17596786E-08
 -0.25324338E-08 -0.32785883E-08 -0.39939625E-08 -0.46746246E-08 -0.53169108E-08
 -0.59174439E-08 -0.64731493E-08 -0.69812700E-08 -0.74393782E-08 -0.78453856E-08
 -0.81975513E-08 -0.84944874E-08 -0.87351624E-08 -0.89189024E-08 -0.90453900E-08
 -0.91146613E-08 -0.91271009E-08 -0.90834340E-08 -0.89847179E-08 -0.88323302E-08
 -0.86279566E-08 -0.83735756E-08 -0.80714431E-08 -0.77240741E-08 -0.73342241E-08
 -0.69048691E-08 -0.64391841E-08 -0.59405214E-08 -0.54123874E-08 -0.48584191E-08
 -0.42823607E-08 -0.36880388E-08 -0.30793380E-08 -0.24601770E-08 -0.18344837E-08
 -0.12061717E-08 -0.57911610E-09  0.42868771E-10  0.65605229E-09  0.12568088E-08
  0.18416383E-08  0.24071859E-08  0.29502604E-08  0.34678511E-08  0.39571440E-08
  0.44155360E-08  0.48406479E-08  0.52303358E-08  0.55827008E-08  0.58960975E-08
  0.61691402E-08  0.64007080E-08  0.65899479E-08  0.67362766E-08  0.68393800E-08
  0.68992116E-08  0.69159895E-08  0.68901910E-08  0.68225465E-08  0.67140316E-08
  0.65658576E-08  0.63794615E-08  0.61564937E-08  0.58988056E-08  0.56084351E-08
  0.52875921E-08  0.49386427E-08  0.45640927E-08  0.41665705E-08  0.37488093E-08
  0.33136294E-08  0.28639200E-08  0.24026201E-08  0.19327006E-08  0.14571455E-08
  0.97893368E-09  0.50102093E-09  0.26322121E-10 -0.44230586E-09 -0.90208074E-09
 -0.13503108E-08 -0.17844099E-08 -0.22019122E-08 -0.26004851E-08 -0.29779420E-08
 -0.33322534E-08 -0.36615575E-08 -0.39641692E-08 -0.42385878E-08 -0.44835041E-08
 -0.46978057E-08 -0.48805809E-08 -0.50311224E-08 -0.51489280E-08 -0.52337017E-08
 -0.52853525E-08 -0.53039924E-08 -0.52899330E-08 -0.52436813E-08 -0.51659337E-08
 -0.50575696E-08 -0.49196436E-08 -0.47533768E-08 -0.45601474E-08 -0.43414802E-08
 -0.40990353E-08 -0.38345967E-08 -0.35500593E-08 -0.32474165E-08 -0.29287465E-08
 -0.25961985E-08 -0.22519792E-08 -0.18983383E-08 -0.15375541E-08 -0.11719198E-08
 -0.80372901E-09 -0.43526183E-09 -0.68771288E-10  0.29353009E-09  0.64948322E-09
  0.99699488E-09  0.13340496E-08  0.16587211E-08  0.19691825E-08  0.22637165E-08
  0.25407244E-08  0.27987343E-08  0.30364084E-08  0.32525494E-08  0.34461062E-08
  0.36161785E-08  0.37620201E-08  0.38830416E-08  0.39788125E-08  0.40490610E-08
  0.40936745E-08  0.41126978E-08  0.41063309E-08  0.40749263E-08  0.40189843E-08
  0.39391488E-08  0.38362010E-08  0.37110537E-08  0.35647432E-08  0.33984222E-08
  0.32133513E-08  0.30108896E-08  0.27924854E-08  0.25596668E-08  0.23140306E-08
  0.20572324E-08  0.17909754E-08  0.15169998E-08  0.12370716E-08  0.95297150E-09
  0.66648409E-09  0.37938674E-09  0.93438987E-10 -0.18962793E-09 -0.46812127E-09
 -0.74039665E-09 -0.10048674E-08 -0.12600135E-08 -0.15043901E-08 -0.17366354E-08
 -0.19554777E-08 -0.21597424E-08 -0.23483577E-08 -0.25203599E-08 -0.26748982E-08
 kinetic energy density (partial)
  0.66490377E+02  0.66469609E+02  0.66407343E+02  0.66303684E+02  0.66158812E+02
  0.65972974E+02  0.65746488E+02  0.65479742E+02  0.65173192E+02  0.64827358E+02
  0.64442829E+02  0.64020254E+02  0.63560348E+02  0.63063882E+02  0.62531689E+02
  0.61964654E+02  0.61363719E+02  0.60729875E+02  0.60064162E+02  0.59367665E+02
  0.58641514E+02  0.57886877E+02  0.57104960E+02  0.56297005E+02  0.55464281E+02
  0.54608089E+02  0.53729751E+02  0.52830614E+02  0.51912041E+02  0.50975412E+02
  0.50022115E+02  0.49053551E+02  0.48071124E+02  0.47076240E+02  0.46070306E+02
  0.45054723E+02  0.44030885E+02  0.43000178E+02  0.41963973E+02  0.40923626E+02
  0.39880476E+02  0.38835839E+02  0.37791008E+02  0.36747251E+02  0.35705807E+02
  0.34667886E+02  0.33634664E+02  0.32607284E+02  0.31586853E+02  0.30574438E+02
  0.29571071E+02  0.28577740E+02  0.27595394E+02  0.26624935E+02  0.25667226E+02
  0.24723082E+02  0.23793275E+02  0.22878529E+02  0.21979524E+02  0.21096891E+02
  0.20231217E+02  0.19383040E+02  0.18552853E+02  0.17741101E+02  0.16948185E+02
  0.16174460E+02  0.15420235E+02  0.14685774E+02  0.13971300E+02  0.13276990E+02
  0.12602983E+02  0.11949375E+02  0.11316221E+02  0.10703540E+02  0.10111312E+02
  0.95394826E+01  0.89879614E+01  0.84566250E+01  0.79453185E+01  0.74538563E+01
  0.69820240E+01  0.65295798E+01  0.60962563E+01  0.56817615E+01  0.52857810E+01
  0.49079792E+01  0.45480008E+01  0.42054726E+01  0.38800050E+01  0.35711936E+01
  0.32786203E+01  0.30018556E+01  0.27404591E+01  0.24939818E+01  0.22619670E+01
  0.20439520E+01  0.18394691E+01  0.16480473E+01  0.14692130E+01  0.13024918E+01
  0.11474095E+01  0.10034928E+01  0.87027106E+00  0.74727669E+00  0.63404647E+00
  0.53012237E+00  0.43505236E+00  0.34839127E+00  0.26970152E+00  0.19855380E+00
  0.13452771E+00  0.77212375E-01  0.26206947E-01 -0.18878906E-01 -0.58424565E-01
 -0.92798091E-01 -0.12235589E+00 -0.14744243E+00 -0.16839002E+00 -0.18551862E+00
 -0.19913569E+00 -0.20953608E+00 -0.21700202E+00 -0.22180303E+00 -0.22419601E+00
 -0.22442522E+00 -0.22272243E+00 -0.21930701E+00 -0.21438608E+00 -0.20815472E+00
 -0.20079611E+00 -0.19248183E+00 -0.18337205E+00 -0.17361587E+00 -0.16335154E+00
 -0.15270681E+00 -0.14179925E+00 -0.13073658E+00 -0.11961701E+00 -0.10852960E+00
 -0.97554646E-01 -0.86764028E-01 -0.76221593E-01 -0.65983538E-01 -0.56098792E-01
 -0.46609397E-01 -0.37550891E-01 -0.28952687E-01 -0.20838451E-01 -0.13226476E-01
 -0.61300442E-02  0.44220689E-03  0.64859331E-02  0.12000738E-01  0.16989834E-01
  0.21459718E-01  0.25419851E-01  0.28882354E-01  0.31861710E-01  0.34374481E-01
  0.36439038E-01  0.38075297E-01  0.39304474E-01  0.40148851E-01  0.40631553E-01
  0.40776337E-01  0.40607399E-01  0.40149188E-01  0.39426235E-01  0.38462999E-01
  0.37283714E-01  0.35912263E-01  0.34372049E-01  0.32685892E-01  0.30875928E-01
  0.28963520E-01  0.26969183E-01  0.24912519E-01  0.22812160E-01  0.20685719E-01
  0.18549758E-01  0.16419754E-01  0.14310081E-01  0.12233997E-01  0.10203638E-01
  0.82300203E-02  0.63230483E-02  0.44915271E-02  0.27431825E-02  0.10846854E-02
 -0.47832049E-03 -0.19411849E-02 -0.33002155E-02 -0.45526377E-02 -0.56965529E-02
 -0.67308934E-02 -0.76553760E-02 -0.84704535E-02 -0.91772656E-02 -0.97775880E-02
 -0.10273782E-01 -0.10668743E-01 -0.10965850E-01 -0.11168914E-01 -0.11282127E-01
 -0.11310015E-01 -0.11257389E-01 -0.11129297E-01 -0.10930977E-01 -0.10667817E-01
 -0.10345310E-01 -0.99690136E-02 -0.95445129E-02 -0.90773830E-02 -0.85731557E-02
 -0.80372873E-02 -0.74751294E-02 -0.68919012E-02 -0.62926649E-02 -0.56823031E-02
 -0.50654985E-02 -0.44467164E-02 -0.38301887E-02 -0.32199007E-02 -0.26195802E-02
 -0.20326883E-02 -0.14624127E-02 -0.91166254E-03 -0.38306584E-03  0.12103194E-03
  0.59856711E-03  0.10477556E-02  0.14670890E-02  0.18553294E-02  0.22115029E-02
  0.25348917E-02  0.28250250E-02  0.30816694E-02  0.33048178E-02  0.34946780E-02
  0.36516601E-02  0.37763640E-02  0.38695657E-02  0.39322038E-02  0.39653654E-02
  0.39702718E-02  0.39482645E-02  0.39007908E-02  0.38293896E-02  0.37356772E-02
  0.36213338E-02  0.34880897E-02  0.33377124E-02  0.31719938E-02  0.29927377E-02
  0.28017485E-02  0.26008195E-02  0.23917228E-02  0.21761992E-02  0.19559489E-02
  0.17326229E-02  0.15078149E-02  0.12830547E-02  0.10598011E-02  0.83943653E-03
  0.62326199E-03  0.41249268E-03  0.20825449E-03  0.11581089E-04 -0.17658824E-03
 -0.35541016E-03 -0.52413809E-03 -0.68212257E-03 -0.82881083E-03 -0.96374593E-03
 -0.10865653E-02 -0.11969990E-02 -0.12948668E-02 -0.13800759E-02 -0.14526176E-02
 -0.15125632E-02 -0.15600606E-02 -0.15953301E-02 -0.16186595E-02 -0.16303997E-02
 -0.16309599E-02 -0.16208025E-02 -0.16004379E-02 -0.15704195E-02 -0.15313383E-02
 -0.14838179E-02 -0.14285092E-02 -0.13660851E-02 -0.12972355E-02 -0.12226628E-02
 -0.11430763E-02 -0.10591880E-02 -0.97170825E-03 -0.88134100E-03 -0.78878007E-03
 -0.69470516E-03 -0.59977828E-03 -0.50464035E-03 -0.40990815E-03 -0.31617145E-03
 -0.22399049E-03 -0.13389367E-03 -0.46375621E-04  0.38104571E-04  0.11912474E-03
  0.19630083E-03  0.26928771E-03  0.33777985E-03  0.40151162E-03  0.46025737E-03
  0.51383132E-03  0.56208712E-03  0.60491729E-03  0.64225234E-03  0.67405982E-03
  0.70034304E-03  0.72113976E-03  0.73652063E-03  0.74658752E-03  0.75147175E-03
  0.75133216E-03  0.74635310E-03  0.73674241E-03  0.72272922E-03  0.70456176E-03
  0.68250517E-03  0.65683925E-03  0.62785617E-03  0.59585826E-03  0.56115577E-03
  0.52406471E-03  0.48490465E-03  0.44399670E-03  0.40166141E-03  0.35821689E-03
  0.31397692E-03  0.26924914E-03  0.22433347E-03  0.17952046E-03  0.13508987E-03
  0.91309358E-04  0.48433211E-04  0.67012956E-05 -0.33661932E-04 -0.72448260E-04
 -0.10946644E-03 -0.14454277E-03 -0.17752156E-03 -0.20826546E-03 -0.23665568E-03
 -0.26259211E-03 -0.28599326E-03 -0.30679612E-03 -0.32495599E-03 -0.34044606E-03
 -0.35325702E-03 -0.36339652E-03 -0.37088855E-03 -0.37577275E-03 -0.37810366E-03
 -0.37794986E-03 -0.37539314E-03 -0.37052752E-03 -0.36345829E-03 -0.35430097E-03
 -0.34318034E-03 -0.33022928E-03 -0.31558777E-03 -0.29940175E-03 -0.28182209E-03
 -0.26300343E-03 -0.24310320E-03 -0.22228051E-03 -0.20069513E-03 -0.17850652E-03
 -0.15587281E-03 -0.13294995E-03 -0.10989075E-03 -0.86844093E-04 -0.63954133E-04
 -0.41359554E-04 -0.19192906E-04  0.24200272E-05  0.23360775E-04  0.43518687E-04
  0.62791360E-04  0.81085017E-04  0.98314809E-04  0.11440506E-03  0.12928946E-03
  0.14291117E-03  0.15522287E-03  0.16618681E-03  0.17577469E-03  0.18396757E-03
  0.19075573E-03  0.19613840E-03  0.20012356E-03  0.20272755E-03  0.20397481E-03
  0.20389741E-03  0.20253468E-03  0.19993274E-03  0.19614398E-03  0.19122664E-03
  0.18524419E-03  0.17826485E-03  0.17036100E-03  0.16160865E-03  0.15208683E-03
  0.14187706E-03  0.13106273E-03  0.11972859E-03  0.10796017E-03  0.95843223E-04
  0.83463210E-04  0.70904783E-04  0.58251292E-04  0.45584310E-04  0.32983188E-04
  0.20524632E-04  0.82823106E-05 -0.36735102E-05 -0.15276300E-04 -0.26463565E-04
 -0.37177116E-04 -0.47363305E-04 -0.56973224E-04 -0.65962875E-04 -0.74293297E-04
 -0.81930670E-04 -0.88846375E-04 -0.95017029E-04 -0.10042448E-03 -0.10505578E-03
 -0.10890312E-03 -0.11196371E-03 -0.11423973E-03 -0.11573810E-03 -0.11647036E-03
 -0.11645245E-03 -0.11570452E-03 -0.11425066E-03 -0.11211867E-03 -0.10933980E-03
 -0.10594843E-03 -0.10198181E-03 -0.97479751E-04 -0.92484298E-04 -0.87039429E-04
 -0.81190734E-04 -0.74985086E-04 -0.68470332E-04 -0.61694967E-04 -0.54707827E-04
 -0.47557777E-04 -0.40293417E-04 -0.32962789E-04 -0.25613102E-04 -0.18290461E-04
 -0.11039618E-04 -0.39037321E-05  0.30758513E-05  0.98598068E-05  0.16411017E-04
  0.22694743E-04  0.28678773E-04  0.34333558E-04  0.39632321E-04  0.44551152E-04
  0.49069080E-04  0.53168127E-04  0.56833342E-04  0.60052817E-04  0.62817683E-04
  0.65122084E-04  0.66963143E-04  0.68340904E-04  0.69258255E-04  0.69720845E-04
  0.69736976E-04  0.69317492E-04  0.68475645E-04  0.67226960E-04  0.65589080E-04
  0.63581608E-04  0.61225940E-04  0.58545093E-04  0.55563518E-04  0.52306926E-04
  0.48802090E-04  0.45076666E-04  0.41158997E-04  0.37077924E-04  0.32862601E-04
  0.28542308E-04  0.24146269E-04  0.19703477E-04  0.15242522E-04  0.10791425E-04
  0.63774824E-05  0.20271177E-05 -0.22342611E-05 -0.63823910E-05 -0.10394275E-04
 -0.14248292E-04 -0.17924297E-04 -0.21403709E-04 -0.24669586E-04 -0.27706694E-04
 -0.30501554E-04 -0.33042488E-04 -0.35319646E-04 -0.37325026E-04 -0.39052477E-04
 -0.40497694E-04 -0.41658204E-04 -0.42533338E-04 -0.43124191E-04 -0.43433578E-04
 -0.43465978E-04 -0.43227465E-04 -0.42725637E-04 -0.41969537E-04 -0.40969560E-04
 -0.39737363E-04 -0.38285765E-04 -0.36628642E-04 -0.34780818E-04 -0.32757955E-04
 -0.30576436E-04 -0.28253253E-04 -0.25805887E-04 -0.23252191E-04 -0.20610274E-04
 -0.17898384E-04 -0.15134794E-04 -0.12337692E-04 -0.95250671E-05 -0.67146108E-05
 -0.39236113E-05 -0.11688587E-05  0.15334465E-05  0.41677791E-05  0.67193691E-05
  0.91742751E-05  0.11519451E-04  0.13742806E-04  0.15833258E-04  0.17780778E-04
  0.19576429E-04  0.21212399E-04  0.22682019E-04  0.23979785E-04  0.25101363E-04
  0.26043589E-04  0.26804469E-04  0.27383159E-04  0.27779952E-04  0.27996245E-04
  0.28034515E-04  0.27898275E-04  0.27592033E-04  0.27121244E-04  0.26492255E-04
  0.25712249E-04  0.24789182E-04  0.23731723E-04  0.22549179E-04  0.21251431E-04
  0.19848859E-04  0.18352271E-04  0.16772823E-04  0.15121951E-04  0.13411288E-04
  0.11652597E-04  0.98576908E-05  0.80383598E-05  0.62063037E-05  0.43730596E-05
  0.25499358E-05  0.74794778E-06 -0.10222430E-05 -0.27503868E-05 -0.44266994E-05
 -0.60419124E-05 -0.75873190E-05 -0.90548159E-05 -0.10436940E-04 -0.11726901E-04
 -0.12918609E-04 -0.14006698E-04 -0.14986544E-04 -0.15854277E-04 -0.16606792E-04
 -0.17241749E-04 -0.17757574E-04 -0.18153456E-04 -0.18429330E-04 -0.18585869E-04
 -0.18624463E-04 -0.18547195E-04 -0.18356817E-04 -0.18056716E-04 -0.17650887E-04
 -0.17143892E-04 -0.16540822E-04 -0.15847257E-04 -0.15069221E-04 -0.14213138E-04
 -0.13285783E-04 -0.12294238E-04 -0.11245836E-04 -0.10148120E-04 -0.90087861E-05
 -0.78356373E-05 -0.66365330E-05 -0.54193398E-05 -0.41918841E-05 -0.29619049E-05
 -0.17370083E-05 -0.52462401E-06  0.66803661E-06  0.18340203E-05  0.29666690E-05
  0.40596553E-05  0.51070141E-05  0.61031722E-05  0.70429748E-05  0.79217093E-05
  0.87351247E-05  0.94794499E-05  0.10151407E-04  0.10748221E-04  0.11267629E-04
  0.11707885E-04  0.12067757E-04  0.12346528E-04  0.12543991E-04  0.12660440E-04
  0.12696657E-04  0.12653902E-04  0.12533893E-04  0.12338789E-04  0.12071167E-04
  0.11734002E-04  0.11330638E-04  0.10864761E-04  0.10340375E-04  0.97617641E-05
  0.91334687E-05  0.84602484E-05  0.77470511E-05  0.69989790E-05  0.62212546E-05
  0.54191870E-05  0.45981380E-05  0.37634883E-05  0.29206047E-05  0.20748076E-05
  0.12313392E-05  0.39533361E-06 -0.42821295E-06 -0.12344699E-05 -0.20187986E-05
 -0.27767773E-05 -0.35042242E-05 -0.41972183E-05 -0.48521189E-05 -0.54655826E-05
 -0.60345787E-05 -0.65564013E-05 -0.70286809E-05 -0.74493924E-05 -0.78168611E-05
 -0.81297674E-05 -0.83871480E-05 -0.85883957E-05 -0.87332566E-05 -0.88218260E-05
 -0.88545411E-05 -0.88321728E-05 -0.87558147E-05 -0.86268715E-05 -0.84470445E-05
 -0.82183161E-05 -0.79429333E-05 -0.76233891E-05 -0.72624029E-05 -0.68629006E-05
 -0.64279928E-05 -0.59609529E-05 -0.54651941E-05 -0.49442468E-05 -0.44017344E-05
 -0.38413504E-05 -0.32668341E-05 -0.26819475E-05 -0.20904518E-05 -0.14960846E-05
 -0.90253775E-06 -0.31343535E-06  0.26768692E-06  0.83740189E-06  0.13924099E-05
  0.19295566E-05  0.24458499E-05  0.29384752E-05  0.34048099E-05  0.38424355E-05
  0.42491495E-05  0.46229748E-05  0.49621682E-05  0.52652269E-05  0.55308937E-05
  0.57581605E-05  0.59462705E-05  0.60947184E-05  0.62032494E-05  0.62718564E-05
  0.63007764E-05  0.62904846E-05  0.62416877E-05  0.61553159E-05  0.60325134E-05
  0.58746280E-05  0.56831997E-05  0.54599480E-05  0.52067585E-05  0.49256689E-05
  0.46188537E-05  0.42886095E-05  0.39373383E-05  0.35675316E-05  0.31817536E-05
  0.27826245E-05  0.23728038E-05  0.19549733E-05  0.15318203E-05  0.11060217E-05
  0.68022716E-06  0.25704412E-06 -0.16097782E-06 -0.57136135E-06 -0.97171532E-06
 -0.13597480E-05 -0.17332792E-05 -0.20902521E-05 -0.24287436E-05 -0.27469738E-05
 -0.30433146E-05 -0.33162974E-05 -0.35646192E-05 -0.37871482E-05 -0.39829277E-05
 -0.41511792E-05 -0.42913046E-05 -0.44028867E-05 -0.44856890E-05 -0.45396543E-05
 -0.45649023E-05 -0.45617258E-05 -0.45305869E-05 -0.44721106E-05 -0.43870792E-05
 -0.42764250E-05 -0.41412218E-05 -0.39826768E-05 -0.38021209E-05 -0.36009984E-05
 -0.33808571E-05 -0.31433369E-05 -0.28901582E-05 -0.26231109E-05 -0.23440416E-05
 -0.20548421E-05 -0.17574370E-05 -0.14537714E-05 -0.11457990E-05 -0.83546985E-06
 -0.52471872E-06 -0.21545343E-06  0.90456252E-07  0.39118941E-06  0.68498434E-06
  0.97014833E-06  0.12450669E-05  0.15082126E-05  0.17581526E-05  0.19935564E-05
  0.22132021E-05  0.24159824E-05  0.26009092E-05  0.27671186E-05  0.29138733E-05
  0.30405659E-05  0.31467205E-05  0.32319935E-05  0.32961738E-05  0.33391819E-05
  0.33610689E-05  0.33620138E-05  0.33423205E-05  0.33024146E-05  0.32428385E-05
  0.31642465E-05  0.30673992E-05  0.29531574E-05  0.28224754E-05  0.26763935E-05
  0.25160308E-05  0.23425769E-05  0.21572841E-05  0.19614582E-05  0.17564505E-05
  0.15436484E-05  0.13244665E-05  0.11003379E-05  0.87270498E-06  0.64301047E-06
  0.41268878E-06  0.18315738E-06 -0.44191623E-07 -0.26799953E-06 -0.48694886E-06
 -0.69977075E-06 -0.90525197E-06 -0.11022415E-05 -0.12896566E-05 -0.14664886E-05
 -0.16318075E-05 -0.17847672E-05 -0.19246087E-05 -0.20506641E-05 -0.21623589E-05
 -0.22592144E-05 -0.23408493E-05 -0.24069802E-05 -0.24574226E-05 -0.24920900E-05
 -0.25109936E-05 -0.25142402E-05 -0.25020308E-05 -0.24746577E-05 -0.24325015E-05
 -0.23760276E-05 -0.23057822E-05 -0.22223876E-05 -0.21265378E-05 -0.20189928E-05
 -0.19005733E-05 -0.17721549E-05 -0.16346618E-05 -0.14890606E-05 -0.13363542E-05
 -0.11775744E-05 -0.10137760E-05 -0.84602966E-06 -0.67541515E-06 -0.50301491E-06
 -0.32990721E-06 -0.15715978E-06  0.14176629E-07  0.18307432E-06  0.34853465E-06
  0.50959362E-06  0.66532736E-06  0.81485711E-06  0.95735397E-06  0.10920433E-05
  0.12182085E-05  0.13351950E-05  0.14424129E-05  0.15393398E-05  0.16255234E-05
  0.17005829E-05  0.17642104E-05  0.18161720E-05  0.18563079E-05  0.18845328E-05
  0.19008350E-05  0.19052755E-05  0.18979870E-05  0.18791718E-05  0.18490998E-05
  0.18081057E-05  0.17565864E-05  0.16949976E-05  0.16238504E-05  0.15437071E-05
  0.14551773E-05  0.13589139E-05  0.12556078E-05  0.11459838E-05  0.10307957E-05
  0.91082091E-06  0.78685587E-06  0.65971072E-06  0.53020423E-06  0.39915873E-06
  0.26739507E-06  0.13572760E-06  0.49593696E-08 -0.12412266E-06 -0.25075215E-06
 -0.37418780E-06 -0.49371750E-06 -0.60866229E-06 -0.71838008E-06 -0.82226899E-06
 -0.91977059E-06 -0.10103726E-05 -0.10936116E-05 -0.11690749E-05 -0.12364027E-05
 -0.12952895E-05 -0.13454850E-05 -0.13867953E-05 -0.14190831E-05 -0.14422679E-05
 -0.14563256E-05 -0.14612882E-05 -0.14572425E-05 -0.14443292E-05 -0.14227413E-05
 -0.13927220E-05 -0.13545629E-05 -0.13086013E-05 -0.12552178E-05 -0.11948334E-05
 -0.11279064E-05 -0.10549288E-05 -0.97642361E-06 -0.89294055E-06 -0.80505278E-06
 -0.71335298E-06 -0.61844952E-06 -0.52096255E-06 -0.42152010E-06 -0.32075416E-06
 -0.21929676E-06 -0.11777615E-06 -0.16813049E-07  0.82983092E-07  0.18101760E-06
  0.27671404E-06  0.36951745E-06  0.45889752E-06  0.54435141E-06  0.62540653E-06
  0.70162304E-06  0.77259604E-06  0.83795767E-06  0.89737885E-06  0.95057081E-06
  0.99728631E-06  0.10373207E-05  0.10705124E-05  0.10967439E-05  0.11159412E-05
  0.11280741E-05  0.11331561E-05  0.11312432E-05  0.11224334E-05  0.11068657E-05
  0.10847182E-05  0.10562071E-05  0.10215848E-05  0.98113768E-06  0.93518408E-06
  0.88407205E-06  0.82817676E-06  0.76789793E-06  0.70365711E-06  0.63589481E-06
  0.56506762E-06  0.49164524E-06  0.41610744E-06  0.33894104E-06  0.26063687E-06
  0.18168671E-06  0.10258032E-06  0.23802458E-07 -0.54169981E-07 -0.13087079E-06
 -0.20584713E-06 -0.27866216E-06 -0.34889746E-06 -0.41615538E-06 -0.48006117E-06
 -0.54026505E-06 -0.59644397E-06 -0.64830327E-06 -0.69557817E-06 -0.73803495E-06
 atomic pseudo charge-density
  0.70000000E+01  0.69882698E+01  0.69532191E+01  0.68952640E+01  0.68150861E+01
  0.67136145E+01  0.65920030E+01  0.64516013E+01  0.62939236E+01  0.61206145E+01
  0.59334143E+01  0.57341240E+01  0.55245724E+01  0.53065848E+01  0.50819556E+01
  0.48524233E+01  0.46196503E+01  0.43852056E+01  0.41505527E+01  0.39170391E+01
  0.36858914E+01  0.34582117E+01  0.32349772E+01  0.30170425E+01  0.28051426E+01
  0.25998981E+01  0.24018216E+01  0.22113244E+01  0.20287236E+01  0.18542502E+01
  0.16880567E+01  0.15302247E+01  0.13807723E+01  0.12396615E+01  0.11068050E+01
  0.98207260E+00  0.86529721E+00  0.75628053E+00  0.65479813E+00  0.56060420E+00
  0.47343577E+00  0.39301665E+00  0.31906086E+00  0.25127575E+00  0.18936477E+00
  0.13302989E+00  0.81973734E-01  0.35901467E-01 -0.54776388E-02 -0.42448814E-01
 -0.75290640E-01 -0.10427409E+00 -0.12966172E+00 -0.15170707E+00 -0.17065415E+00
 -0.18673707E+00 -0.20017981E+00 -0.21119606E+00 -0.21998912E+00 -0.22675196E+00
 -0.23166727E+00 -0.23490758E+00 -0.23663547E+00 -0.23700376E+00 -0.23615577E+00
 -0.23422563E+00 -0.23133855E+00 -0.22761114E+00 -0.22315177E+00 -0.21806090E+00
 -0.21243141E+00 -0.20634898E+00 -0.19989241E+00 -0.19313398E+00 -0.18613978E+00
 -0.17897009E+00 -0.17167964E+00 -0.16431799E+00 -0.15692981E+00 -0.14955520E+00
 -0.14222995E+00 -0.13498586E+00 -0.12785099E+00 -0.12084992E+00 -0.11400398E+00
 -0.10733153E+00 -0.10084814E+00 -0.94566817E-01 -0.88498222E-01 -0.82650848E-01
 -0.77031205E-01 -0.71643996E-01 -0.66492275E-01 -0.61577603E-01 -0.56900188E-01
 -0.52459029E-01 -0.48252032E-01 -0.44276139E-01 -0.40527433E-01 -0.37001243E-01
 -0.33692245E-01 -0.30594549E-01 -0.27701781E-01 -0.25007167E-01 -0.22503600E-01
 -0.20183708E-01 -0.18039915E-01 -0.16064500E-01 -0.14249646E-01 -0.12587486E-01
 -0.11070151E-01 -0.96898053E-02 -0.84386810E-02 -0.73091130E-02 -0.62935651E-02
 -0.53846560E-02 -0.45751813E-02 -0.38581329E-02 -0.32267160E-02 -0.26743635E-02
 -0.21947476E-02 -0.17817903E-02 -0.14296709E-02 -0.11328323E-02 -0.88598480E-03
 -0.68410936E-03 -0.52245838E-03 -0.39655568E-03 -0.30219497E-03 -0.23543730E-03
 -0.19260736E-03 -0.17028887E-03 -0.16531913E-03 -0.17478272E-03 -0.19600461E-03
 -0.22654260E-03 -0.26417923E-03 -0.30691329E-03 -0.35295087E-03 -0.40069616E-03
 -0.44874198E-03 -0.49586007E-03 -0.54099132E-03 -0.58323584E-03 -0.62184305E-03
 -0.65620178E-03 -0.68583040E-03 -0.71036707E-03 -0.72956012E-03 -0.74325863E-03
 -0.75140318E-03 -0.75401686E-03 -0.75119653E-03 -0.74310436E-03 -0.72995973E-03
 -0.71203140E-03 -0.68963004E-03 -0.66310114E-03 -0.63281829E-03 -0.59917679E-03
 -0.56258774E-03 -0.52347244E-03 -0.48225724E-03 -0.43936873E-03 -0.39522942E-03
 -0.35025371E-03 -0.30484432E-03 -0.25938909E-03 -0.21425813E-03 -0.16980136E-03
 -0.12634642E-03 -0.84196901E-04 -0.43630888E-04 -0.48998898E-05  0.31771987E-04
  0.66188550E-04  0.98181771E-04  0.12761177E-03  0.15436655E-03  0.17836157E-03
  0.19953901E-03  0.21786697E-03  0.23333840E-03  0.24596993E-03  0.25580059E-03
  0.26289036E-03  0.26731868E-03  0.26918282E-03  0.26859626E-03  0.26568696E-03
  0.26059566E-03  0.25347408E-03  0.24448321E-03  0.23379158E-03  0.22157350E-03
  0.20800745E-03  0.19327440E-03  0.17755623E-03  0.16103430E-03  0.14388794E-03
  0.12629315E-03  0.10842134E-03  0.90438139E-04  0.72502365E-04  0.54765041E-04
  0.37368544E-04  0.20445852E-04  0.41199038E-05 -0.11496942E-04 -0.26303332E-04
 -0.40209246E-04 -0.53136217E-04 -0.65017448E-04 -0.75797841E-04 -0.85433924E-04
 -0.93893696E-04 -0.10115638E-03 -0.10721211E-03 -0.11206155E-03 -0.11571539E-03
 -0.11819388E-03 -0.11952626E-03 -0.11975008E-03 -0.11891060E-03 -0.11706008E-03
 -0.11425705E-03 -0.11056559E-03 -0.10605455E-03 -0.10079682E-03 -0.94868531E-04
 -0.88348333E-04 -0.81316629E-04 -0.73854848E-04 -0.66044736E-04 -0.57967669E-04
 -0.49704001E-04 -0.41332441E-04 -0.32929475E-04 -0.24568816E-04 -0.16320911E-04
 -0.82524868E-05 -0.42614002E-06  0.71000160E-05  0.14272660E-04  0.21043522E-04
  0.27369584E-04  0.33213243E-04  0.38542413E-04  0.43330584E-04  0.47556834E-04
  0.51205790E-04  0.54267551E-04  0.56737570E-04  0.58616487E-04  0.59909940E-04
  0.60628329E-04  0.60786562E-04  0.60403758E-04  0.59502945E-04  0.58110719E-04
  0.56256898E-04  0.53974156E-04  0.51297648E-04  0.48264631E-04  0.44914071E-04
  0.41286266E-04  0.37422454E-04  0.33364438E-04  0.29154215E-04  0.24833619E-04
  0.20443972E-04  0.16025757E-04  0.11618307E-04  0.72595106E-05  0.29855476E-05
 -0.11693616E-05 -0.51731765E-05 -0.89962326E-05 -0.12611412E-04 -0.15994287E-04
 -0.19123236E-04 -0.21979533E-04 -0.24547411E-04 -0.26814096E-04 -0.28769819E-04
 -0.30407795E-04 -0.31724191E-04 -0.32718056E-04 -0.33391239E-04 -0.33748284E-04
 -0.33796299E-04 -0.33544822E-04 -0.33005656E-04 -0.32192700E-04 -0.31121766E-04
 -0.29810378E-04 -0.28277578E-04 -0.26543710E-04 -0.24630210E-04 -0.22559388E-04
 -0.20354213E-04 -0.18038094E-04 -0.15634672E-04 -0.13167607E-04 -0.10660380E-04
 -0.81360948E-05 -0.56172959E-05 -0.31257916E-05 -0.68249108E-06  0.16927470E-05
  0.39812521E-05  0.61656654E-05  0.82300487E-05  0.10159978E-04  0.11942623E-04
  0.13566806E-04  0.15023051E-04  0.16303617E-04  0.17402507E-04  0.18315474E-04
  0.19040001E-04  0.19575278E-04  0.19922153E-04  0.20083083E-04  0.20062060E-04
  0.19864538E-04  0.19497341E-04  0.18968566E-04  0.18287480E-04  0.17464400E-04
  0.16510583E-04  0.15438098E-04  0.14259698E-04  0.12988698E-04  0.11638836E-04
  0.10224151E-04  0.87588466E-05  0.72571716E-05  0.57332912E-05  0.42011689E-05
  0.26744524E-05  0.11663644E-05 -0.31039939E-06 -0.17437649E-05 -0.31223670E-05
 -0.44356279E-05 -0.56738265E-05 -0.68281593E-05 -0.78907914E-05 -0.88548974E-05
 -0.97146937E-05 -0.10465460E-04 -0.11103550E-04 -0.11626398E-04 -0.12032508E-04
 -0.12321441E-04 -0.12493789E-04 -0.12551142E-04 -0.12496050E-04 -0.12331976E-04
 -0.12063238E-04 -0.11694953E-04 -0.11232971E-04 -0.10683805E-04 -0.10054556E-04
 -0.93528391E-05 -0.85867017E-05 -0.77645442E-05 -0.68950374E-05 -0.59870410E-05
 -0.50495214E-05 -0.40914720E-05 -0.31218342E-05 -0.21494212E-05 -0.11828452E-05
 -0.23044785E-06  0.69976552E-06  0.16001864E-05  0.24636591E-05  0.32835315E-05
  0.40537002E-05  0.47686491E-05  0.54234832E-05  0.60139552E-05  0.65364862E-05
  0.69881802E-05  0.73668321E-05  0.76709301E-05  0.78996511E-05  0.80528513E-05
  0.81310502E-05  0.81354105E-05  0.80677115E-05  0.79303188E-05  0.77261494E-05
  0.74586329E-05  0.71316692E-05  0.67495829E-05  0.63170757E-05  0.58391763E-05
  0.53211886E-05  0.47686390E-05  0.41872231E-05  0.35827517E-05  0.29610979E-05
  0.23281441E-05  0.16897308E-05  0.10516067E-05  0.41938072E-06 -0.20152326E-06
 -0.80590958E-06 -0.13888505E-05 -0.19457226E-05 -0.24722404E-05 -0.29644852E-05
 -0.34189308E-05 -0.38324651E-05 -0.42024075E-05 -0.45265221E-05 -0.48030268E-05
 -0.50305983E-05 -0.52083730E-05 -0.53359437E-05 -0.54133529E-05 -0.54410815E-05
 -0.54200350E-05 -0.53515253E-05 -0.52372503E-05 -0.50792699E-05 -0.48799802E-05
 -0.46420840E-05 -0.43685610E-05 -0.40626352E-05 -0.37277409E-05 -0.33674884E-05
 -0.29856281E-05 -0.25860146E-05 -0.21725710E-05 -0.17492526E-05 -0.13200121E-05
 -0.88876451E-06 -0.45935454E-06 -0.35524016E-07  0.37911825E-06  0.78112510E-06
  0.11672375E-05  0.15344088E-05  0.18798267E-05  0.22009326E-05  0.24954382E-05
  0.27613396E-05  0.29969284E-05  0.32008004E-05  0.33718608E-05  0.35093271E-05
  0.36127288E-05  0.36819051E-05  0.37169991E-05  0.37184502E-05  0.36869833E-05
  0.36235965E-05  0.35295465E-05  0.34063318E-05  0.32556740E-05  0.30794985E-05
  0.28799127E-05  0.26591840E-05  0.24197161E-05  0.21640250E-05  0.18947151E-05
  0.16144539E-05  0.13259475E-05  0.10319160E-05  0.73506962E-06  0.43808485E-06
  0.14358199E-06 -0.14589671E-06 -0.42790759E-06 -0.70012490E-06 -0.96035863E-06
 -0.12065708E-05 -0.14368901E-05 -0.16496245E-05 -0.18432728E-05 -0.20165331E-05
 -0.21683102E-05 -0.22977212E-05 -0.24040980E-05 -0.24869893E-05 -0.25461595E-05
 -0.25815865E-05 -0.25934572E-05 -0.25821618E-05 -0.25482854E-05 -0.24925997E-05
 -0.24160516E-05 -0.23197516E-05 -0.22049604E-05 -0.20730751E-05 -0.19256136E-05
 -0.17641991E-05 -0.15905436E-05 -0.14064313E-05 -0.12137009E-05 -0.10142288E-05
 -0.80991172E-06 -0.60264975E-06 -0.39432949E-06 -0.18680788E-06  0.18103488E-07
  0.21865331E-06  0.41316467E-06  0.60004822E-06  0.77781430E-06  0.94508394E-06
  0.11005987E-05  0.12432292E-05  0.13719823E-05  0.14860073E-05  0.15846001E-05
  0.16672067E-05  0.17334246E-05  0.17830038E-05  0.18158454E-05  0.18319995E-05
  0.18316619E-05  0.18151692E-05  0.17829934E-05  0.17357342E-05  0.16741122E-05
  0.15989592E-05  0.15112092E-05  0.14118881E-05  0.13021026E-05  0.11830292E-05
  0.10559022E-05  0.92200173E-06  0.78264185E-06  0.63915814E-06  0.49289560E-06
  0.34519672E-06  0.19738970E-06  0.50777159E-07 -0.93374832E-07 -0.23384707E-06
 -0.36947700E-06 -0.49916773E-06 -0.62189638E-06 -0.73672155E-06 -0.84278993E-06
 -0.93934206E-06 -0.10257171E-05 -0.11013566E-05 -0.11658075E-05 -0.12187238E-05
 -0.12598677E-05 -0.12891095E-05 -0.13064263E-05 -0.13119004E-05 -0.13057164E-05
 -0.12881577E-05 -0.12596018E-05 -0.12205151E-05 -0.11714476E-05 -0.11130257E-05
 -0.10459458E-05 -0.97096652E-06 -0.88890080E-06 -0.80060791E-06 -0.70698487E-06
 -0.60895792E-06 -0.50747377E-06 -0.40349098E-06 -0.29797128E-06 -0.19187111E-06
 -0.86133339E-07  0.18320711E-07  0.12059892E-06  0.21984562E-06  0.31524835E-06
  0.40604413E-06  0.49152521E-06  0.57104413E-06  0.64401826E-06  0.70993361E-06
  0.76834802E-06  0.81889359E-06  0.86127849E-06  0.89528803E-06  0.92078503E-06
  0.93770953E-06  0.94607779E-06  0.94598071E-06  0.93758156E-06  0.92111316E-06
  0.89687449E-06  0.86522681E-06  0.82658928E-06  0.78143418E-06  0.73028177E-06
  0.67369480E-06  0.61227277E-06  0.54664599E-06  0.47746946E-06  0.40541668E-06
  0.33117343E-06  0.25543148E-06  0.17888250E-06  0.10221197E-06  0.26093334E-07
 -0.48817670E-07 -0.12188838E-06 -0.19251431E-06 -0.26012387E-06 -0.32418274E-06
 -0.38419782E-06 -0.43972076E-06 -0.49035096E-06 -0.53573824E-06 -0.57558486E-06
 -0.60964715E-06 -0.63773658E-06 -0.65972038E-06 -0.67552162E-06 -0.68511879E-06
 -0.68854498E-06 -0.68588650E-06 -0.67728113E-06 -0.66291596E-06 -0.64302478E-06
 -0.61788517E-06 -0.58781524E-06 -0.55317010E-06 -0.51433805E-06 -0.47173654E-06
 -0.42580803E-06 -0.37701560E-06 -0.32583858E-06 -0.27276802E-06 -0.21830221E-06
 -0.16294220E-06 -0.10718739E-06 -0.51531217E-07  0.35430660E-08  0.57566352E-07
  0.11008753E-06  0.16067704E-06  0.20893023E-06  0.25447041E-06  0.29695156E-06
  0.33606080E-06  0.37152044E-06  0.40308979E-06  0.43056649E-06  0.45378759E-06
  0.47263018E-06  0.48701174E-06  0.49689009E-06  0.50226295E-06  0.50316725E-06
  0.49967807E-06  0.49190723E-06  0.48000166E-06  0.46414145E-06  0.44453767E-06
  0.42142992E-06  0.39508375E-06  0.36578787E-06  0.33385116E-06  0.29959968E-06
  0.26337345E-06  0.22552329E-06  0.18640754E-06  0.14638885E-06  0.10583092E-06
  0.65095335E-07  0.24538502E-07 -0.15491377E-07 -0.54657145E-07 -0.92635409E-07
 -0.12911908E-06 -0.16381971E-06 -0.19646967E-06 -0.22682404E-06 -0.25466233E-06
 -0.27978990E-06 -0.30203918E-06 -0.32127060E-06 -0.33737327E-06 -0.35026540E-06
 -0.35989447E-06 -0.36623712E-06 -0.36929881E-06 -0.36911325E-06 -0.36574154E-06
 -0.35927118E-06 -0.34981475E-06 -0.33750854E-06 -0.32251090E-06 -0.30500044E-06
 -0.28517416E-06 -0.26324536E-06 -0.23944150E-06 -0.21400202E-06 -0.18717601E-06
 -0.15921988E-06 -0.13039506E-06 -0.10096561E-06 -0.71195912E-07 -0.41348403E-07
 -0.11681337E-07  0.17553349E-07  0.46112088E-07  0.73761616E-07  0.10028079E-06
  0.12546224E-06  0.14911394E-06  0.17106051E-06  0.19114446E-06  0.20922718E-06
  0.22518979E-06  0.23893378E-06  0.25038148E-06  0.25947634E-06  0.26618302E-06
  0.27048729E-06  0.27239577E-06  0.27193546E-06  0.26915317E-06  0.26411471E-06
  0.25690399E-06  0.24762196E-06  0.23638543E-06  0.22332580E-06  0.20858762E-06
  0.19232713E-06  0.17471072E-06  0.15591332E-06  0.13611672E-06  0.11550792E-06
  0.94277431E-07  0.72617564E-07  0.50720789E-07  0.28778074E-07  0.69772859E-08
 -0.14498347E-07 -0.35471711E-07 -0.55773204E-07 -0.75242032E-07 -0.93727421E-07
 -0.11108971E-06 -0.12720132E-06 -0.14194764E-06 -0.15522775E-06 -0.16695499E-06
 -0.17705748E-06 -0.18547845E-06 -0.19217640E-06 -0.19712521E-06 -0.20031407E-06
 -0.20174727E-06 -0.20144390E-06 -0.19943741E-06 -0.19577507E-06 -0.19051729E-06
 -0.18373689E-06 -0.17551827E-06 -0.16595642E-06 -0.15515599E-06 -0.14323020E-06
 -0.13029972E-06 -0.11649153E-06 -0.10193771E-06 -0.86774269E-07 -0.71139891E-07
 -0.55174736E-07 -0.39019226E-07 -0.22812865E-07 -0.66930756E-08  0.92059153E-08
  0.24754146E-07  0.39826934E-07  0.54305828E-07  0.68079483E-07  0.81044473E-07
  0.93106003E-07  0.10417856E-06  0.11418643E-06  0.12306421E-06  0.13075709E-06
  0.13722120E-06  0.14242370E-06  0.14634293E-06  0.14896831E-06  0.15030028E-06
  0.15035010E-06  0.14913952E-06  0.14670043E-06  0.14307441E-06  0.13831222E-06
  0.13247317E-06  0.12562452E-06  0.11784076E-06  0.10920285E-06  0.99797427E-07
  0.89716000E-07  0.79054094E-07  0.67910385E-07  0.56385825E-07  0.44582763E-07
  0.32604075E-07  0.20552297E-07  0.85287889E-08 -0.33670887E-08 -0.15038758E-07
 -0.26393171E-07 -0.37341521E-07 -0.47799893E-07 -0.57689874E-07 -0.66939102E-07
 -0.75481752E-07 -0.83258967E-07 -0.90219214E-07 -0.96318584E-07 -0.10152102E-06
 -0.10579846E-06 -0.10913095E-06 -0.11150664E-06 -0.11292179E-06 -0.11338057E-06
 -0.11289497E-06 -0.11148453E-06 -0.10917605E-06 -0.10600326E-06 -0.10200639E-06
 -0.97231763E-07 -0.91731293E-07 -0.85561972E-07 -0.78785312E-07 -0.71466769E-07
 -0.63675141E-07 -0.55481948E-07 -0.46960806E-07 -0.38186790E-07 -0.29235801E-07
 -0.20183932E-07 -0.11106848E-07 -0.20791799E-08  0.68260662E-08  0.15538071E-07
  0.23988740E-07  0.32113211E-07  0.39850322E-07  0.47143047E-07  0.53938888E-07
  0.60190223E-07  0.65854608E-07  0.70895038E-07  0.75280156E-07  0.78984406E-07
  0.81988153E-07  0.84277738E-07  0.85845494E-07  0.86689708E-07  0.86814540E-07
  0.86229892E-07  0.84951240E-07  0.82999417E-07  0.80400361E-07  0.77184825E-07
  0.73388057E-07  0.69049442E-07  0.64212124E-07  0.58922601E-07  0.53230302E-07
  0.47187144E-07  0.40847079E-07  0.34265633E-07  0.27499437E-07  0.20605760E-07
  0.13642042E-07  0.66654323E-08 -0.26765715E-09 -0.71019936E-08 -0.13783943E-07
 -0.20261873E-07 -0.26486532E-07 -0.32411406E-07 -0.37993048E-07 -0.43191374E-07
 -0.47969936E-07 -0.52296155E-07 -0.56141520E-07 -0.59481761E-07 -0.62296974E-07
 -0.64571721E-07 -0.66295081E-07 -0.67460681E-07 -0.68066672E-07 -0.68115689E-07
 -0.67614760E-07 -0.66575194E-07 -0.65012430E-07 -0.62945857E-07 -0.60398609E-07
 -0.57397333E-07 -0.53971925E-07 -0.50155257E-07 -0.45982875E-07 -0.41492684E-07
 -0.36724617E-07 -0.31720297E-07 -0.26522686E-07 -0.21175728E-07 -0.15723992E-07
 -0.10212316E-07 -0.46854488E-08  0.81230153E-09  0.62374066E-08  0.11547452E-07
  0.16701455E-07  0.21660168E-07  0.26386369E-07  0.30845121E-07  0.35004027E-07
  0.38833445E-07  0.42306693E-07  0.45400220E-07  0.48093756E-07  0.50370427E-07
  0.52216854E-07  0.53623211E-07  0.54583266E-07  0.55094386E-07  0.55157514E-07
  0.54777129E-07  0.53961162E-07  0.52720901E-07  0.51070865E-07  0.49028652E-07
  0.46614771E-07  0.43852447E-07  0.40767412E-07  0.37387674E-07  0.33743277E-07
  0.29866042E-07  0.25789299E-07  0.21547610E-07  0.17176489E-07  0.12712109E-07
  0.81910153E-08  0.36498331E-08 -0.87501876E-09 -0.53476122E-08 -0.97327867E-08
 -0.13996418E-07 -0.18105674E-07 -0.22029263E-07 -0.25737663E-07 -0.29203336E-07
 -0.32400928E-07 -0.35307445E-07 -0.37902415E-07 -0.40168024E-07 -0.42089231E-07
 -0.43653864E-07 -0.44852691E-07 -0.45679460E-07 -0.46130932E-07 -0.46206872E-07
 -0.45910030E-07 -0.45246092E-07 -0.44223609E-07 -0.42853910E-07 -0.41150985E-07
 -0.39131356E-07 -0.36813923E-07 -0.34219798E-07 -0.31372122E-07 -0.28295859E-07
 -0.25017593E-07 -0.21565301E-07 -0.17968120E-07 -0.14256109E-07 -0.10460006E-07
 -0.66109753E-08 -0.27403614E-08  0.11205633E-08  0.49408444E-08  0.86900893E-08
  0.12338704E-07  0.15858122E-07  0.19221024E-07  0.22401546E-07  0.25375475E-07
  0.28120430E-07  0.30616026E-07  0.32844024E-07  0.34788460E-07  0.36435760E-07
   19.8421228800787      T
 Non local Part
           0           2   1.02927938025280     
   12.5899829070998        13.2609075459838        13.2609075459838     
   13.9685470677237     
 Reciprocal Space Part
 -0.16800985E+03 -0.16683587E+03 -0.16333265E+03 -0.15755598E+03 -0.14959770E+03
 -0.13958397E+03 -0.12767288E+03 -0.11405154E+03 -0.98932578E+02 -0.82550236E+02
 -0.65156049E+02 -0.47014271E+02 -0.28397104E+02 -0.95798346E+01  0.91640179E+01
  0.27567453E+02  0.45374540E+02  0.62344678E+02  0.78256496E+02  0.92911304E+02
  0.10613605E+03  0.11778571E+03  0.12774512E+03  0.13593017E+03  0.14228835E+03
  0.14679875E+03  0.14947139E+03  0.15034599E+03  0.14949020E+03  0.14699742E+03
  0.14298403E+03  0.13758646E+03  0.13095785E+03  0.12326452E+03  0.11468237E+03
  0.10539316E+03  0.95580920E+02  0.85428349E+02  0.75113494E+02  0.64806623E+02
  0.54667406E+02  0.44842444E+02  0.35463184E+02  0.26644246E+02  0.18482181E+02
  0.11054665E+02  0.44201323E+01 -0.13821728E+01 -0.63317396E+01 -0.10425967E+02
 -0.13679001E+02 -0.16120289E+02 -0.17792882E+02 -0.18751553E+02 -0.19060770E+02
 -0.18792589E+02 -0.18024517E+02 -0.16837388E+02 -0.15313314E+02 -0.13533743E+02
 -0.11577671E+02 -0.95200355E+01 -0.74303212E+01 -0.53713973E+01 -0.33985968E+01
 -0.15590491E+01  0.10873862E+00  0.15750542E+01  0.28189218E+01  0.38278285E+01
  0.45972576E+01  0.51300540E+01  0.54356510E+01  0.55291866E+01  0.54305423E+01
  0.51633341E+01  0.47538863E+01  0.42302180E+01  0.36210669E+01  0.29549758E+01
  0.22594628E+01  0.15602892E+01  0.88084190E+00  0.24163598E+00 -0.34005534E+00
 -0.85044379E+00 -0.12793441E+01 -0.16201735E+01 -0.18698415E+01 -0.20285416E+01
 -0.20994590E+01 -0.20884092E+01 -0.20034235E+01 -0.18542990E+01 -0.16521283E+01
 -0.14088262E+01 -0.11366675E+01 -0.84785045E+00 -0.55409649E+00 -0.26629731E+00
 Real Space Part
  0.79441539E+03  0.79400668E+03  0.79278102E+03  0.79073983E+03  0.78788553E+03
  0.78422146E+03  0.77975194E+03  0.77448225E+03  0.76841865E+03  0.76156836E+03
  0.75393959E+03  0.74554153E+03  0.73638436E+03  0.72647928E+03  0.71583848E+03
  0.70447516E+03  0.69240358E+03  0.67963902E+03  0.66619782E+03  0.65209737E+03
  0.63735616E+03  0.62199376E+03  0.60603086E+03  0.58948926E+03  0.57239192E+03
  0.55476294E+03  0.53662761E+03  0.51801241E+03  0.49894502E+03  0.47945436E+03
  0.45957060E+03  0.43932515E+03  0.41875071E+03  0.39788126E+03  0.37675208E+03
  0.35539975E+03  0.33386218E+03  0.31217855E+03  0.29038938E+03  0.26853646E+03
  0.24666287E+03  0.22481291E+03  0.20303214E+03  0.18136724E+03  0.15986605E+03
  0.13857741E+03  0.11755114E+03  0.96837916E+02  0.76489161E+02  0.56556897E+02
  0.37093592E+02  0.18151989E+02 -0.21510560E+00 -0.17955046E+02 -0.35015602E+02
 -0.51345237E+02 -0.66893419E+02 -0.81610958E+02 -0.95450367E+02 -0.10836625E+03
 -0.12031574E+03 -0.13125891E+03 -0.14115925E+03 -0.14998416E+03 -0.15770542E+03
 -0.16429971E+03 -0.16974912E+03 -0.17404163E+03 -0.17717160E+03 -0.17914024E+03
 -0.17995605E+03 -0.17963520E+03 -0.17820184E+03 -0.17568841E+03 -0.17213581E+03
 -0.16759352E+03 -0.16211959E+03 -0.15578056E+03 -0.14865127E+03 -0.14081449E+03
 -0.13236048E+03 -0.12338648E+03 -0.11399590E+03 -0.10429765E+03 -0.94405081E+02
 -0.84435084E+02 -0.74506905E+02 -0.64741038E+02 -0.55257956E+02 -0.46176891E+02
 -0.37614561E+02 -0.29683927E+02 -0.22492979E+02 -0.16143586E+02 -0.10730376E+02
 -0.63399515E+01 -0.30498327E+01 -0.92212233E+00 -0.46466673E-01  0.00000000E+00
 Reciprocal Space Part
  0.16467398E+03  0.16354676E+03  0.16018304E+03  0.15463623E+03  0.14699423E+03
  0.13737779E+03  0.12593827E+03  0.11285477E+03  0.98330867E+02  0.82590823E+02
  0.65875481E+02  0.48437886E+02  0.30538722E+02  0.12441661E+02 -0.55912776E+01
 -0.23304269E+02 -0.40452040E+02 -0.56803943E+02 -0.72147687E+02 -0.86292646E+02
 -0.99072681E+02 -0.11034845E+03 -0.12000913E+03 -0.12797359E+03 -0.13419093E+03
 -0.13864046E+03 -0.14133107E+03 -0.14230007E+03 -0.14161153E+03 -0.13935411E+03
 -0.13563854E+03 -0.13059475E+03 -0.12436867E+03 -0.11711893E+03 -0.10901332E+03
 -0.10022537E+03 -0.90930763E+02 -0.81304040E+02 -0.71515328E+02 -0.61727390E+02
 -0.52092920E+02 -0.42752179E+02 -0.33831002E+02 -0.25439187E+02 -0.17669311E+02
 -0.10595948E+02 -0.42753176E+01  0.12546746E+01  0.59740065E+01  0.98797580E+01
  0.12985008E+02  0.15317457E+02  0.16917811E+02  0.17837987E+02  0.18139188E+02
  0.17889887E+02  0.17163789E+02  0.16037809E+02  0.14590115E+02  0.12898271E+02
  0.11037536E+02  0.90793213E+01  0.70898675E+01  0.51291252E+01  0.32498776E+01
  0.14971001E+01 -0.92441380E-01 -0.14903586E+01 -0.26765875E+01 -0.36391301E+01
 -0.43736118E+01 -0.48826783E+01 -0.51752601E+01 -0.52657315E+01 -0.51729949E+01
 -0.49195199E+01 -0.45303654E+01 -0.40322134E+01 -0.34524382E+01 -0.28182360E+01
 -0.21558322E+01 -0.14897837E+01 -0.84238939E+00 -0.23321480E+00  0.32126124E+00
  0.80787926E+00  0.12169125E+01  0.15420673E+01  0.17803786E+01  0.19320124E+01
  0.19999872E+01  0.19898305E+01  0.19091839E+01  0.17673739E+01  0.15749647E+01
  0.13433064E+01  0.10840946E+01  0.80895436E+00  0.52905814E+00  0.25478949E+00
 Real Space Part
 -0.75040441E+03 -0.75001684E+03 -0.74885457E+03 -0.74691898E+03 -0.74421232E+03
 -0.74073779E+03 -0.73649948E+03 -0.73150240E+03 -0.72575249E+03 -0.71925660E+03
 -0.71202252E+03 -0.70405897E+03 -0.69537562E+03 -0.68598309E+03 -0.67589294E+03
 -0.66511772E+03 -0.65367094E+03 -0.64156711E+03 -0.62882173E+03 -0.61545133E+03
 -0.60147344E+03 -0.58690664E+03 -0.57177057E+03 -0.55608593E+03 -0.53987450E+03
 -0.52315917E+03 -0.50596396E+03 -0.48831399E+03 -0.47023556E+03 -0.45175612E+03
 -0.43290431E+03 -0.41370998E+03 -0.39420416E+03 -0.37441912E+03 -0.35438839E+03
 -0.33414669E+03 -0.31373002E+03 -0.29317562E+03 -0.27252195E+03 -0.25180873E+03
 -0.23107685E+03 -0.21036843E+03 -0.18972672E+03 -0.16919608E+03 -0.14882194E+03
 -0.12865073E+03 -0.10872975E+03 -0.89107166E+02 -0.69831817E+02 -0.50953128E+02
 -0.32520948E+02 -0.14585382E+02  0.28034049E+01  0.19595400E+02  0.35740989E+02
  0.51191219E+02  0.65898094E+02  0.79814895E+02  0.92896528E+02  0.10509989E+03
  0.11638428E+03  0.12671181E+03  0.13604782E+03  0.14436141E+03  0.15162581E+03
  0.15781895E+03  0.16292388E+03  0.16692926E+03  0.16982984E+03  0.17162689E+03
  0.17232858E+03  0.17195041E+03  0.17051548E+03  0.16805476E+03  0.16460726E+03
  0.16022018E+03  0.15494886E+03  0.14885670E+03  0.14201502E+03  0.13450265E+03
  0.12640558E+03  0.11781640E+03  0.10883359E+03  0.99560829E+02  0.90106043E+02
  0.80580498E+02  0.71097696E+02  0.61772316E+02  0.52719005E+02  0.44051220E+02
  0.35880013E+02  0.28312847E+02  0.21452448E+02  0.15395703E+02  0.10232597E+02
  0.60454676E+01  0.29080009E+01  0.87919091E+00  0.44300810E-01  0.00000000E+00
 Non local Part
           1           2   1.02927938025280     
   5.16211496453205        6.53320325514917        6.53320325514917     
   8.27918027737059     
 Reciprocal Space Part
  0.00000000E+00  0.54975996E+01  0.10872460E+02  0.16004358E+02  0.20778053E+02
  0.25085637E+02  0.28828733E+02  0.31920476E+02  0.34287257E+02  0.35870166E+02
  0.36626132E+02  0.36528713E+02  0.35568533E+02  0.33753363E+02  0.31107835E+02
  0.27672807E+02  0.23504393E+02  0.18672689E+02  0.13260211E+02  0.73601012E+01
  0.10741303E+01 -0.54894495E+01 -0.12218157E+02 -0.18997589E+02 -0.25713722E+02
 -0.32255176E+02 -0.38515372E+02 -0.44394553E+02 -0.49801619E+02 -0.54655744E+02
 -0.58887742E+02 -0.62441157E+02 -0.65273062E+02 -0.67354557E+02 -0.68670958E+02
 -0.69221683E+02 -0.69019853E+02 -0.68091609E+02 -0.66475179E+02 -0.64219729E+02
 -0.61384011E+02 -0.58034860E+02 -0.54245570E+02 -0.50094201E+02 -0.45661836E+02
 -0.41030847E+02 -0.36283202E+02 -0.31498852E+02 -0.26754216E+02 -0.22120828E+02
 -0.17664126E+02 -0.13442443E+02 -0.95061961E+01 -0.58972789E+01 -0.26486784E+01
  0.21569821E+00  0.26809868E+01  0.47411318E+01  0.63984678E+01  0.76631380E+01
  0.85523680E+01  0.90896235E+01  0.93036733E+01  0.92275887E+01  0.88977043E+01
  0.83525678E+01  0.76319047E+01  0.67756223E+01  0.58228751E+01  0.48112100E+01
  0.37758092E+01  0.27488421E+01  0.17589365E+01  0.83077590E+00 -0.15177519E-01
 -0.76283188E+00 -0.14004934E+01 -0.19207793E+01 -0.23204250E+01 -0.25999997E+01
 -0.27635416E+01 -0.28181293E+01 -0.27734058E+01 -0.26410689E+01 -0.24343479E+01
 -0.21674775E+01 -0.18551878E+01 -0.15122204E+01 -0.11528841E+01 -0.79065917E+00
 -0.43785809E+00 -0.10534844E+00  0.19765854E+00  0.46375242E+00  0.68740168E+00
  0.86496803E+00  0.99466127E+00  0.10764403E+01  0.11118674E+01  0.11039234E+01
 Real Space Part
  0.00000000E+00 -0.15321247E+02 -0.30596617E+02 -0.45780355E+02 -0.60826959E+02
 -0.75691298E+02 -0.90328739E+02 -0.10469527E+03 -0.11874762E+03 -0.13244338E+03
 -0.14574113E+03 -0.15860055E+03 -0.17098254E+03 -0.18284935E+03 -0.19416465E+03
 -0.20489371E+03 -0.21500346E+03 -0.22446259E+03 -0.23324172E+03 -0.24131343E+03
 -0.24865241E+03 -0.25523553E+03 -0.26104197E+03 -0.26605325E+03 -0.27025340E+03
 -0.27362898E+03 -0.27616920E+03 -0.27786596E+03 -0.27871399E+03 -0.27871083E+03
 -0.27785697E+03 -0.27615588E+03 -0.27361405E+03 -0.27024107E+03 -0.26604963E+03
 -0.26105561E+03 -0.25527803E+03 -0.24873913E+03 -0.24146437E+03 -0.23348239E+03
 -0.22482503E+03 -0.21552730E+03 -0.20562732E+03 -0.19516630E+03 -0.18418844E+03
 -0.17274086E+03 -0.16087348E+03 -0.14863892E+03 -0.13609231E+03 -0.12329118E+03
 -0.11029519E+03 -0.97165987E+02 -0.83966884E+02 -0.70762632E+02 -0.57619085E+02
 -0.44602868E+02 -0.31781005E+02 -0.19220516E+02 -0.69879780E+01  0.48509380E+01
  0.16231964E+02  0.27092759E+02  0.37373455E+02  0.47017230E+02  0.55970888E+02
  0.64185458E+02  0.71616790E+02  0.78226151E+02  0.83980809E+02  0.88854588E+02
  0.92828396E+02  0.95890712E+02  0.98038003E+02  0.99275083E+02  0.99615391E+02
  0.99081186E+02  0.97703614E+02  0.95522675E+02  0.92587108E+02  0.88954064E+02
  0.84688735E+02  0.79863810E+02  0.74558777E+02  0.68859182E+02  0.62855650E+02
  0.56642939E+02  0.50318760E+02  0.43982655E+02  0.37734707E+02  0.31674300E+02
  0.25898816E+02  0.20502366E+02  0.15574551E+02  0.11199286E+02  0.74536762E+01
  0.44071098E+01  0.21202978E+01  0.64175959E+00  0.25600037E-01  0.00000000E+00
 Reciprocal Space Part
  0.00000000E+00 -0.42064117E+01 -0.83158546E+01 -0.12233364E+02 -0.15867940E+02
 -0.19134422E+02 -0.21955233E+02 -0.24261961E+02 -0.25996738E+02 -0.27113398E+02
 -0.27578365E+02 -0.27371290E+02 -0.26485392E+02 -0.24927510E+02 -0.22717877E+02
 -0.19889601E+02 -0.16487890E+02 -0.12569028E+02 -0.81991228E+01 -0.34526731E+01
  0.15890314E+01  0.68396256E+01  0.12209468E+02  0.17607482E+02  0.22942994E+02
  0.28127534E+02  0.33076563E+02  0.37711071E+02  0.41959044E+02  0.45756745E+02
  0.49049797E+02  0.51794043E+02  0.53956173E+02  0.55514116E+02  0.56457170E+02
  0.56785912E+02  0.56511854E+02  0.55656894E+02  0.54252558E+02  0.52339067E+02
  0.49964252E+02  0.47182339E+02  0.44052647E+02  0.40638223E+02  0.37004447E+02
  0.33217643E+02  0.29343719E+02  0.25446875E+02  0.21588400E+02  0.17825581E+02
  0.14210749E+02  0.10790466E+02  0.76048900E+01  0.46872897E+01  0.20637493E+01
 -0.24696352E+00 -0.22333600E+01 -0.38910332E+01 -0.52223150E+01 -0.62358010E+01
 -0.69457621E+01 -0.73714608E+01 -0.75363947E+01 -0.74674883E+01 -0.71942548E+01
 -0.67479500E+01 -0.61607398E+01 -0.54648983E+01 -0.46920579E+01 -0.38725226E+01
 -0.30346615E+01 -0.22043902E+01 -0.14047480E+01 -0.65557720E+00  0.26696043E-01
  0.62917837E+00  0.11425280E+01  0.15608812E+01  0.18816943E+01  0.21055111E+01
  0.22356672E+01  0.22779428E+01  0.22401768E+01  0.21318561E+01  0.19636918E+01
  0.17471963E+01  0.14942709E+01  0.12168169E+01  0.92637773E+00  0.63382068E+00
  0.34906450E+00  0.80856990E-01 -0.16339425E+00 -0.37773716E+00 -0.55773699E+00
 -0.70048675E+00 -0.80456974E+00 -0.86997886E+00 -0.89799822E+00 -0.89105360E+00
 Real Space Part
  0.00000000E+00  0.12579725E+02  0.25122000E+02  0.37589478E+02  0.49945013E+02
  0.62151764E+02  0.74173297E+02  0.85973681E+02  0.97517591E+02  0.10877041E+03
  0.11969830E+03  0.13026837E+03  0.14044867E+03  0.15020837E+03  0.15951782E+03
  0.16834863E+03  0.17667379E+03  0.18446773E+03  0.19170642E+03  0.19836746E+03
  0.20443016E+03  0.20987559E+03  0.21468670E+03  0.21884839E+03  0.22234754E+03
  0.22517313E+03  0.22731629E+03  0.22877035E+03  0.22953091E+03  0.22959590E+03
  0.22896563E+03  0.22764282E+03  0.22563269E+03  0.22294294E+03  0.21958383E+03
  0.21556818E+03  0.21091140E+03  0.20563150E+03  0.19974912E+03  0.19328748E+03
  0.18627242E+03  0.17873234E+03  0.17069818E+03  0.16220341E+03  0.15328391E+03
  0.14397795E+03  0.13432609E+03  0.12437107E+03  0.11415769E+03  0.10373270E+03
  0.93144599E+02  0.82443482E+02  0.71680833E+02  0.60909300E+02  0.50182439E+02
  0.39554445E+02  0.29079845E+02  0.18813176E+02  0.88086290E+01 -0.88032818E+00
 -0.10201352E+02 -0.19103650E+02 -0.27538422E+02 -0.35459323E+02 -0.42822937E+02
 -0.49589261E+02 -0.55722188E+02 -0.61189995E+02 -0.65965808E+02 -0.70028063E+02
 -0.73360928E+02 -0.75954703E+02 -0.77806157E+02 -0.78918822E+02 -0.79303219E+02
 -0.78977019E+02 -0.77965100E+02 -0.76299523E+02 -0.74019436E+02 -0.71170823E+02
 -0.67806193E+02 -0.63984150E+02 -0.59768830E+02 -0.55229297E+02 -0.50438761E+02
 -0.45473805E+02 -0.40413441E+02 -0.35338192E+02 -0.30329056E+02 -0.25466500E+02
 -0.20829405E+02 -0.16494038E+02 -0.12533051E+02 -0.90145253E+01 -0.60010593E+01
 -0.35490358E+01 -0.17078404E+01 -0.51702500E+00 -0.20629098E-01  0.00000000E+00
 PAW radial sets
         371  0.940643174700967     
(5E20.12)                                
 augmentation charges (non sperical)
 -0.374852642215E+00 -0.392920964763E+00 -0.154245570597E+00 -0.191438223929E+00 -0.392920964763E+00
 -0.411877790728E+00 -0.162146210883E+00 -0.201218685469E+00 -0.154245570597E+00 -0.162146210883E+00
 -0.421592153158E-01 -0.508818708409E-01 -0.191438223929E+00 -0.201218685469E+00 -0.508818708409E-01
 -0.613773277758E-01
 uccopancies in atom
  0.200000000092E+01  0.000000000000E+00  0.000000000000E+00  0.000000000000E+00  0.000000000000E+00
  0.000000000000E+00  0.000000000000E+00  0.000000000000E+00  0.000000000000E+00  0.000000000000E+00
  0.166666666684E+01  0.000000000000E+00  0.000000000000E+00  0.000000000000E+00  0.000000000000E+00
  0.000000000000E+00
 grid
  0.381802798748E-04  0.394218073282E-04  0.407037061571E-04  0.420272891380E-04  0.433939117355E-04
  0.448049734906E-04  0.462619194538E-04  0.477662416650E-04  0.493194806818E-04  0.509232271565E-04
  0.525791234657E-04  0.542888653919E-04  0.560542038603E-04  0.578769467317E-04  0.597589606541E-04
  0.617021729742E-04  0.637085737112E-04  0.657802175949E-04  0.679192261695E-04  0.701277899668E-04
  0.724081707491E-04  0.747627038255E-04  0.771938004438E-04  0.797039502592E-04  0.822957238846E-04
  0.849717755226E-04  0.877348456840E-04  0.905877639940E-04  0.935334520902E-04  0.965749266148E-04
  0.997153023033E-04  0.102957795175E-03  0.106305725826E-03  0.109762522829E-03  0.113331726248E-03
  0.117016991257E-03  0.120822091891E-03  0.124750924905E-03  0.128807513768E-03  0.132996012780E-03
  0.137320711331E-03  0.141786038290E-03  0.146396566543E-03  0.151157017672E-03  0.156072266796E-03
  0.161147347559E-03  0.166387457288E-03  0.171797962314E-03  0.177384403464E-03  0.183152501745E-03
  0.189108164192E-03  0.195257489925E-03  0.201606776389E-03  0.208162525810E-03  0.214931451847E-03
  0.221920486473E-03  0.229136787069E-03  0.236587743758E-03  0.244280986971E-03  0.252224395261E-03
  0.260426103372E-03  0.268894510570E-03  0.277638289244E-03  0.286666393787E-03  0.295988069768E-03
  0.305612863397E-03  0.315550631304E-03  0.325811550631E-03  0.336406129457E-03  0.347345217557E-03
  0.358640017511E-03  0.370302096183E-03  0.382343396560E-03  0.394776249986E-03  0.407613388790E-03
  0.420867959322E-03  0.434553535422E-03  0.448684132316E-03  0.463274220968E-03  0.478338742907E-03
  0.493893125517E-03  0.509953297846E-03  0.526535706914E-03  0.543657334557E-03  0.561335714817E-03
  0.579588951902E-03  0.598435738720E-03  0.617895376029E-03  0.637987792197E-03  0.658733563614E-03
  0.680153935764E-03  0.702270844978E-03  0.725106940905E-03  0.748685609703E-03  0.773030997988E-03
  0.798168037566E-03  0.824122470962E-03  0.850920877784E-03  0.878590701942E-03  0.907160279753E-03
  0.936658868962E-03  0.967116678703E-03  0.998564900433E-03  0.103103573988E-02  0.106456245002E-02
  0.109917936514E-02  0.113492193598E-02  0.117182676605E-02  0.120993164913E-02  0.124927560795E-02
  0.128989893416E-02  0.133184322959E-02  0.137515144888E-02  0.141986794341E-02  0.146603850679E-02
  0.151371042172E-02  0.156293250839E-02  0.161375517452E-02  0.166623046697E-02  0.172041212502E-02
  0.177635563542E-02  0.183411828922E-02  0.189375924042E-02  0.195533956656E-02  0.201892233129E-02
  0.208457264891E-02  0.215235775108E-02  0.222234705567E-02  0.229461223784E-02  0.236922730346E-02
  0.244626866487E-02  0.252581521916E-02  0.260794842895E-02  0.269275240582E-02  0.278031399646E-02
  0.287072287159E-02  0.296407161780E-02  0.306045583235E-02  0.315997422112E-02  0.326272869962E-02
  0.336882449742E-02  0.347837026588E-02  0.359147818946E-02  0.370826410054E-02  0.382884759810E-02
  0.395335217018E-02  0.408190532035E-02  0.421463869826E-02  0.435168823449E-02  0.449319427974E-02
  0.463930174857E-02  0.479016026779E-02  0.494592432971E-02  0.510675345034E-02  0.527281233275E-02
  0.544427103576E-02  0.562130514804E-02  0.580409596802E-02  0.599283068945E-02  0.618770259319E-02
  0.638891124509E-02  0.659666270039E-02  0.681116971475E-02  0.703265196208E-02  0.726133625957E-02
  0.749745679991E-02  0.774125539118E-02  0.799298170443E-02  0.825289352940E-02  0.852125703853E-02
  0.879834705949E-02  0.908444735667E-02  0.937985092178E-02  0.968486027389E-02  0.999978776923E-02
  0.103249559211E-01  0.106606977300E-01  0.110073570250E-01  0.113652888155E-01  0.117348596548E-01
  0.121164480159E-01  0.125104446785E-01  0.129172531297E-01  0.133372899769E-01  0.137709853745E-01
  0.142187834644E-01  0.146811428312E-01  0.151585369711E-01  0.156514547775E-01  0.161604010412E-01
  0.166858969678E-01  0.172284807110E-01  0.177887079239E-01  0.183671523282E-01  0.189644063015E-01
  0.195810814840E-01  0.202178094050E-01  0.208752421296E-01  0.215540529263E-01  0.222549369567E-01
  0.229786119872E-01  0.237258191244E-01  0.244973235737E-01  0.252939154229E-01  0.261164104519E-01
  0.269656509673E-01  0.278425066657E-01  0.287478755239E-01  0.296826847187E-01  0.306478915766E-01
  0.316444845535E-01  0.326734842478E-01  0.337359444452E-01  0.348329531977E-01  0.359656339381E-01
  0.371351466305E-01  0.383426889580E-01  0.395894975496E-01  0.408768492462E-01  0.422060624084E-01
  0.435784982667E-01  0.449955623153E-01  0.464587057516E-01  0.479694269623E-01  0.495292730581E-01
  0.511398414575E-01  0.528027815234E-01  0.545197962517E-01  0.562926440155E-01  0.581231403660E-01
  0.600131598912E-01  0.619646381363E-01  0.639795735856E-01  0.660600297091E-01  0.682081370756E-01
  0.704260955348E-01  0.727161764700E-01  0.750807251242E-01  0.775221630017E-01  0.800429903484E-01
  0.826457887116E-01  0.853332235845E-01  0.881080471351E-01  0.909731010253E-01  0.939313193205E-01
  0.969857314948E-01  0.100139465533E+00  0.103395751135E+00  0.106757923021E+00  0.110229424349E+00
  0.113813810240E+00  0.117514751419E+00  0.121336037971E+00  0.125281583230E+00  0.129355427777E+00
  0.133561743586E+00  0.137904838292E+00  0.142389159602E+00  0.147019299855E+00  0.151800000718E+00
  0.156736158047E+00  0.161832826898E+00  0.167095226705E+00  0.172528746626E+00  0.178138951059E+00
  0.183931585345E+00  0.189912581648E+00  0.196088065029E+00  0.202464359724E+00  0.209047995615E+00
  0.215845714921E+00  0.222864479102E+00  0.230111475983E+00  0.237594127124E+00  0.245320095413E+00
  0.253297292917E+00  0.261533888984E+00  0.270038318606E+00  0.278819291064E+00  0.287885798840E+00
  0.297247126831E+00  0.306912861855E+00  0.316892902469E+00  0.327197469106E+00  0.337837114543E+00
  0.348822734708E+00  0.360165579834E+00  0.371877265987E+00  0.383969786957E+00  0.396455526541E+00
  0.409347271229E+00  0.422658223292E+00  0.436402014310E+00  0.450592719126E+00  0.465244870261E+00
  0.480373472797E+00  0.495994019748E+00  0.512122507916E+00  0.528775454284E+00  0.545969912924E+00
  0.563723492464E+00  0.582054374121E+00  0.600981330319E+00  0.620523743916E+00  0.640701628051E+00
  0.661535646640E+00  0.683047135539E+00  0.705258124393E+00  0.728191359194E+00  0.751870325580E+00
  0.776319272881E+00  0.801563238955E+00  0.827628075830E+00  0.854540476176E+00  0.882328000644E+00
  0.911019106086E+00  0.940643174701E+00  0.971230544125E+00  0.100281253850E+01  0.103542150054E+01
  0.106909082467E+01  0.110385499124E+01  0.113974960177E+01  0.117681141549E+01  0.121507838694E+01
  0.125458970483E+01  0.129538583221E+01  0.133750854789E+01  0.138100098919E+01  0.142590769618E+01
  0.147227465725E+01  0.152014935623E+01  0.156958082099E+01  0.162061967366E+01  0.167331818250E+01
  0.172773031537E+01  0.178391179507E+01  0.184192015633E+01  0.190181480478E+01  0.196365707779E+01
  0.202751030723E+01  0.209343988440E+01  0.216151332695E+01  0.223180034803E+01  0.230437292768E+01
  0.237930538659E+01  0.245667446212E+01  0.253655938697E+01  0.261904197029E+01  0.270420668146E+01
  0.279214073657E+01  0.288293418778E+01  0.297668001553E+01  0.307347422372E+01  0.317341593810E+01
  0.327660750770E+01  0.338315460972E+01  0.349316635768E+01  0.360675541325E+01  0.372403810154E+01
  0.384513453026E+01  0.397016871275E+01  0.409926869493E+01  0.423256668646E+01  0.437019919614E+01
  0.451230717169E+01  0.465903614408E+01  0.481053637661E+01  0.496696301876E+01  0.512847626507E+01
  0.529524151923E+01
 aepotential
  0.213271306467E+05  0.212537397140E+05  0.211422574433E+05  0.209935326949E+05  0.208085956010E+05
  0.205887721483E+05  0.203357161033E+05  0.200511436615E+05  0.197370954884E+05  0.193956992053E+05
  0.190292612223E+05  0.186401202355E+05  0.182308032644E+05  0.178037716752E+05  0.173615527745E+05
  0.169066471144E+05  0.164415294095E+05  0.159685908880E+05  0.154901528673E+05  0.150084192823E+05
  0.145254826619E+05  0.140432957963E+05  0.135636742223E+05  0.130882774583E+05  0.126186148216E+05
  0.121560361334E+05  0.117017385356E+05  0.112567648106E+05  0.108220024092E+05  0.103982092676E+05
  0.998599577796E+04  0.958585144463E+04  0.919814485816E+04  0.882313612127E+04  0.846098591850E+04
  0.811176519677E+04  0.777546487227E+04  0.745200515462E+04  0.714124456809E+04  0.684298852037E+04
  0.655699737489E+04  0.628299377458E+04  0.602066979575E+04  0.576969289502E+04  0.552971184837E+04
  0.530036122249E+04  0.508126719213E+04  0.487204910065E+04  0.467232648506E+04  0.448171685175E+04
  0.429984411289E+04  0.412633586786E+04  0.396082741940E+04  0.380296300269E+04  0.365239553177E+04
  0.350879012389E+04  0.337182160889E+04  0.324117729328E+04  0.311655602350E+04  0.299766894665E+04
  0.288423909290E+04  0.277600080000E+04  0.267270356035E+04  0.257409874869E+04  0.247996704970E+04
  0.239007864166E+04  0.230423071606E+04  0.222222309457E+04  0.214386698134E+04  0.206898329265E+04
  0.199740133273E+04  0.192896120837E+04  0.186350764986E+04  0.180089636523E+04  0.174099006807E+04
  0.168365613898E+04  0.162877240488E+04  0.157622030315E+04  0.152588832023E+04  0.147767112474E+04
  0.143146814562E+04  0.138718441480E+04  0.134472960335E+04  0.130401835786E+04  0.126496920083E+04
  0.122750508500E+04  0.119155319607E+04  0.115704384680E+04  0.112391115952E+04  0.109209262999E+04
  0.106152869569E+04  0.103216292756E+04  0.100394152242E+04  0.976813570833E+03  0.950730438566E+03
  0.925646004177E+03  0.901516268568E+03  0.878299609209E+03  0.855955873651E+03  0.834447689536E+03
  0.813738611220E+03  0.793794078688E+03  0.774581856982E+03  0.756070305706E+03  0.738229715634E+03
  0.721031687229E+03  0.704449121411E+03  0.688456043334E+03  0.673027877521E+03  0.658140802878E+03
  0.643772477165E+03  0.629901179511E+03  0.616506325795E+03  0.603568247857E+03  0.591068030917E+03
  0.578987614620E+03  0.567309742113E+03  0.556017815332E+03  0.545096003264E+03  0.534529059319E+03
  0.524302451644E+03  0.514402160900E+03  0.504814777607E+03  0.495527422400E+03  0.486527723175E+03
  0.477803809129E+03  0.469344257531E+03  0.461138082037E+03  0.453174744168E+03  0.445444071696E+03
  0.437936298309E+03  0.430642003565E+03  0.423552123366E+03  0.416657912411E+03  0.409950949248E+03
  0.403423093515E+03  0.397066526181E+03  0.390873627753E+03  0.384837144032E+03  0.378949942191E+03
  0.373205248966E+03  0.367596409562E+03  0.362117054886E+03  0.356760973508E+03  0.351522183599E+03
  0.346394870526E+03  0.341373402568E+03  0.336452308973E+03  0.331626296835E+03  0.326890217987E+03
  0.322239069446E+03  0.317668000526E+03  0.313172290723E+03  0.308747349633E+03  0.304388710230E+03
  0.300092030442E+03  0.295853081193E+03  0.291667737569E+03  0.287531991012E+03  0.283441931036E+03
  0.279393744424E+03  0.275383714862E+03  0.271408221099E+03  0.267463728666E+03  0.263546791012E+03
  0.259654045490E+03  0.255782215419E+03  0.251928101610E+03  0.248088585817E+03  0.244260628036E+03
  0.240441264924E+03  0.236627608896E+03  0.232816848737E+03  0.229006248108E+03  0.225193145042E+03
  0.221374954269E+03  0.217549164450E+03  0.213713341937E+03  0.209865129216E+03  0.206002247684E+03
  0.202122498097E+03  0.198223763117E+03  0.194304007609E+03  0.190361284588E+03  0.186393732515E+03
  0.182399582823E+03  0.178377160986E+03  0.174324890260E+03  0.170241296192E+03  0.166125010626E+03
  0.161974777425E+03  0.157789454713E+03  0.153568025698E+03  0.149309600643E+03  0.145013425762E+03
  0.140678891363E+03  0.136305538660E+03  0.131893070495E+03  0.127441362681E+03  0.122950472069E+03
  0.118420652089E+03  0.113852366770E+03  0.109246303937E+03  0.104603395455E+03  0.999248334259E+02
  0.952120938178E+02  0.904669573871E+02  0.856915361287E+02  0.808883003690E+02  0.760601072614E+02
  0.712102322249E+02  0.663423999629E+02  0.614608159889E+02  0.565701963191E+02  0.516757931601E+02
  0.467834146891E+02  0.418994333803E+02  0.370307801629E+02  0.321849163675E+02  0.273697785797E+02
  0.225936869259E+02  0.178652091417E+02  0.131929739606E+02  0.858542685873E+01  0.405053007418E+01
 -0.404586409471E+00 -0.477399879794E+01 -0.905334616039E+01 -0.132400972367E+02 -0.173336190820E+02
 -0.213349007299E+02 -0.252457536499E+02 -0.290673120054E+02 -0.327977237184E+02 -0.364291062036E+02
 -0.399441471002E+02 -0.433131642027E+02 -0.464928105662E+02 -0.494277166092E+02 -0.520559150229E+02
 -0.543178633110E+02 -0.561675623171E+02 -0.575832577055E+02 -0.585749180016E+02 -0.591861725518E+02
 -0.594894464820E+02 -0.595747298739E+02 -0.595346910956E+02 -0.594506908236E+02 -0.593840744169E+02
 -0.593744841690E+02 -0.594436663629E+02 -0.596015138200E+02 -0.598515558513E+02 -0.601945937997E+02
 -0.606304485343E+02 -0.611584879955E+02 -0.617775793819E+02 -0.624859321461E+02 -0.632810358465E+02
 -0.641597384727E+02 -0.651184074727E+02 -0.661531320495E+02 -0.672598925731E+02 -0.684346995420E+02
 -0.696736692082E+02 -0.709730523329E+02 -0.723292162841E+02 -0.737385923307E+02 -0.751975865948E+02
 -0.767024623644E+02 -0.782491901019E+02 -0.798332666778E+02 -0.814494985838E+02 -0.830917504898E+02
 -0.847526743037E+02 -0.864234265262E+02 -0.880934280784E+02 -0.897502238211E+02 -0.913795444005E+02
 -0.929656963543E+02 -0.944924216358E+02 -0.959443529809E+02 -0.973091558225E+02 -0.985803271914E+02
 -0.997604852432E+02 -0.100864562931E+03 -0.101921325767E+03 -0.102969499471E+03 -0.104041750645E+03
 -0.105130023362E+03 -0.106139533011E+03 -0.106871322728E+03 -0.107092085070E+03 -0.106689689680E+03
 -0.105787854895E+03 -0.104672955631E+03 -0.103589069657E+03 -0.102623167687E+03 -0.101748144048E+03
 -0.100906739513E+03 -0.100054962736E+03 -0.991692280267E+02 -0.982405588766E+02 -0.972677169352E+02
 -0.962523427180E+02 -0.951962478597E+02 -0.941003376384E+02 -0.929645306031E+02 -0.917881536759E+02
 -0.905704344447E+02 -0.893109183350E+02 -0.880097370867E+02 -0.866677399050E+02 -0.852865212311E+02
 -0.838683774170E+02 -0.824162219839E+02 -0.809334803965E+02 -0.794239730423E+02 -0.778917980470E+02
 -0.763412108037E+02 -0.747765122026E+02 -0.732019295950E+02 -0.716215103308E+02 -0.700390137890E+02
 -0.684578152444E+02 -0.668808278829E+02 -0.653104490134E+02 -0.637485466627E+02 -0.621964927586E+02
 -0.606552500638E+02 -0.591255067705E+02 -0.576078464106E+02 -0.561029301224E+02 -0.546116653051E+02
 -0.531353362976E+02 -0.516756793859E+02 -0.502348936387E+02 -0.488155880184E+02 -0.474206721295E+02
 -0.460532024289E+02 -0.447161985015E+02 -0.434124462728E+02 -0.421443072238E+02 -0.409135543861E+02
 -0.397212554177E+02 -0.385677189132E+02 -0.374525115947E+02 -0.363745426801E+02 -0.353322004924E+02
 -0.343235186664E+02 -0.333463471885E+02 -0.323985069107E+02 -0.314779132162E+02 -0.305826625965E+02
 -0.297110828342E+02 -0.288617521360E+02 -0.280334947562E+02 -0.272253608992E+02 -0.264365977236E+02
 -0.256666167438E+02 -0.249149613343E+02 -0.241812766449E+02 -0.234652831490E+02 -0.227667542800E+02
 -0.220854981143E+02 -0.214213427784E+02 -0.207741251201E+02 -0.201436821451E+02 -0.195298447422E+02
 -0.189324332662E+02
 core charge-density
  0.124062892711E-03  0.132186161464E-03  0.140840949053E-03  0.150061996035E-03  0.159886309942E-03
  0.170353312856E-03  0.181504998533E-03  0.193386099742E-03  0.206044266417E-03  0.219530255376E-03
  0.233898132305E-03  0.249205486826E-03  0.265513661470E-03  0.282887995471E-03  0.301398084301E-03
  0.321118055982E-03  0.342126865242E-03  0.364508606649E-03  0.388352847952E-03  0.413754984906E-03
  0.440816618965E-03  0.469645959297E-03  0.500358250669E-03  0.533076228859E-03  0.567930605339E-03
  0.605060583085E-03  0.644614405510E-03  0.686749940601E-03  0.731635302499E-03  0.779449512891E-03
  0.830383204743E-03  0.884639371013E-03  0.942434161225E-03  0.100399772889E-02  0.106957513295E-02
  0.113942729675E-02  0.121383202791E-02  0.129308510324E-02  0.137750142242E-02  0.146741623502E-02
  0.156318644523E-02  0.166519199925E-02  0.177383736041E-02  0.188955307747E-02  0.201279745190E-02
  0.214405831015E-02  0.228385488752E-02  0.243273983025E-02  0.259130132342E-02  0.276016535197E-02
  0.293999810323E-02  0.313150851950E-02  0.333545100963E-02  0.355262832948E-02  0.378389464123E-02
  0.403015876232E-02  0.429238761555E-02  0.457160989210E-02  0.486891994030E-02  0.518548189359E-02
  0.552253405155E-02  0.588139352920E-02  0.626346119010E-02  0.667022687965E-02  0.710327497679E-02
  0.756429028098E-02  0.805506425586E-02  0.857750164782E-02  0.913362750252E-02  0.972559460089E-02
  0.103556913386E-01  0.110263500740E-01  0.117401559696E-01  0.124998563557E-01  0.133083706441E-01
  0.141688008209E-01  0.150844425518E-01  0.160587969302E-01  0.170955829037E-01  0.181987504152E-01
  0.193724942930E-01  0.206212689320E-01  0.219498038032E-01  0.233631198356E-01  0.248665467120E-01
  0.264657411241E-01  0.281667060340E-01  0.299758109886E-01  0.318998135371E-01  0.339458818027E-01
  0.361216182592E-01  0.384350847670E-01  0.408948289230E-01  0.435099117786E-01  0.462899369841E-01
  0.492450814150E-01  0.523861273378E-01  0.557244961746E-01  0.592722839220E-01  0.630422982829E-01
  0.670480975671E-01  0.713040314165E-01  0.758252834083E-01  0.806279155864E-01  0.857289149710E-01
  0.911462420924E-01  0.968988815847E-01  0.103006894881E+00  0.109491475038E+00  0.116375003706E+00
  0.123681110269E+00  0.131434733152E+00  0.139662183289E+00  0.148391209738E+00  0.157651067406E+00
  0.167472586832E+00  0.177888245969E+00  0.188932243872E+00  0.200640576183E+00  0.213051112280E+00
  0.226203673928E+00  0.240140115236E+00  0.254904403694E+00  0.270542702035E+00  0.287103450598E+00
  0.304637449859E+00  0.323197942732E+00  0.342840696169E+00  0.363624081580E+00  0.385609153469E+00
  0.408859725678E+00  0.433442444497E+00  0.459426857882E+00  0.486885479875E+00  0.515893849284E+00
  0.546530581567E+00  0.578877412738E+00  0.613019234048E+00  0.649044116067E+00  0.687043320636E+00
  0.727111299111E+00  0.769345675104E+00  0.813847209880E+00  0.860719748343E+00  0.910070143485E+00
  0.962008156970E+00  0.101664633340E+01  0.107409984568E+01  0.113448630876E+01  0.119792555878E+01
  0.126453939479E+01  0.133445127973E+01  0.140778599749E+01  0.148466926279E+01  0.156522728025E+01
  0.164958624942E+01  0.173787181206E+01  0.183020843819E+01  0.192671874756E+01  0.202752276299E+01
  0.213273709240E+01  0.224247403648E+01  0.235684061912E+01  0.247593753820E+01  0.259985803460E+01
  0.272868667785E+01  0.286249806758E+01  0.300135545029E+01  0.314530925218E+01  0.329439552956E+01
  0.344863433927E+01  0.360802803321E+01  0.377255948202E+01  0.394219023480E+01  0.411685862333E+01
  0.429647782112E+01  0.448093386985E+01  0.467008368764E+01  0.486375307622E+01  0.506173474667E+01
  0.526378638556E+01  0.546962878681E+01  0.567894407679E+01  0.589137406355E+01  0.610651874383E+01
  0.632393500439E+01  0.654313555724E+01  0.676358815070E+01  0.698471510117E+01  0.720589319220E+01
  0.742645398964E+01  0.764568462248E+01  0.786282908052E+01  0.807709007873E+01  0.828763153866E+01
  0.849358173442E+01  0.869403714821E+01  0.888806707637E+01  0.907471902096E+01  0.925302489503E+01
  0.942200806161E+01  0.958069121522E+01  0.972810510334E+01  0.986329807149E+01  0.998534639918E+01
  0.100933653778E+02  0.101865210610E+02  0.102640425987E+02  0.103252350440E+02  0.103694924979E+02
  0.103963114346E+02  0.104053040266E+02  0.103962112632E+02  0.103689156360E+02  0.103234531420E+02
  0.102600243367E+02  0.101790041555E+02  0.100809502077E+02  0.996660924240E+01  0.983692148605E+01
  0.969302255444E+01  0.953624265883E+01  0.936810284612E+01  0.919030804446E+01  0.900473672636E+01
  0.881342705056E+01  0.861855940347E+01  0.842243532854E+01  0.822745290744E+01  0.803607873890E+01
  0.785081674655E+01  0.767417413478E+01  0.750862489683E+01  0.735657136039E+01  0.722030432406E+01
  0.710196240311E+01  0.700349124571E+01  0.692660332402E+01  0.687273904063E+01  0.684302993355E+01
  0.683826481453E+01  0.685885973347E+01  0.690483271320E+01  0.697578422919E+01  0.707088439090E+01
  0.718886770159E+01  0.732803609384E+01  0.748627066083E+01  0.766105215581E+01  0.784948999836E+01
  0.804835929848E+01  0.825414529507E+01  0.846309457718E+01  0.867127239201E+01  0.887462522761E+01
  0.906904770622E+01  0.925045260755E+01  0.941484268706E+01  0.955838281292E+01  0.967747087190E+01
  0.976880586032E+01  0.982945161562E+01  0.985689468943E+01  0.984909499621E+01  0.980452797483E+01
  0.972221720088E+01  0.960175656069E+01  0.944332132376E+01  0.924766768217E+01  0.901612058445E+01
  0.875054994181E+01  0.845333556209E+01  0.812732142250E+01  0.777576016084E+01  0.740224891698E+01
  0.701065788237E+01  0.660505315874E+01  0.618961569748E+01  0.576855829436E+01  0.534604274529E+01
  0.492609939024E+01  0.451255133496E+01  0.410894565229E+01  0.371849371165E+01  0.334402264297E+01
  0.298793944710E+01  0.265220875206E+01  0.233834438051E+01  0.204741389584E+01  0.178005387915E+01
  0.153649204734E+01  0.131657138646E+01  0.111977323819E+01  0.945242645653E+00  0.791826970343E+00
  0.658138099336E+00  0.542633993942E+00  0.443698934016E+00  0.359703279619E+00  0.289041022556E+00
  0.230155030510E+00  0.181557881707E+00  0.141850307658E+00  0.109736415980E+00  0.840346850453E-01
  0.636843455501E-01  0.477473308615E-01  0.354063253479E-01  0.259596075585E-01  0.188134366225E-01
  0.134727132617E-01  0.953059063562E-02  0.665763084618E-02  0.459100928249E-02  0.312416763755E-02
  0.209721343279E-02  0.138826513513E-02  0.905852540178E-03  0.582405913347E-03  0.368806654270E-03
  0.229927648824E-03  0.141062240689E-03  0.851251074428E-04  0.505038277873E-04  0.294438786292E-04
  0.168595492414E-04  0.947643083979E-05  0.522577417529E-05  0.282562084232E-05  0.149718721470E-05
  0.776908518703E-06  0.394564985944E-06  0.195990877434E-06  0.951536779771E-07  0.451212246489E-07
  0.208825558836E-07  0.942548609385E-08  0.414570289118E-08  0.177545703436E-08  0.739721877935E-09
  0.299561863272E-09  0.117804510419E-09  0.449444298064E-10  0.166185445014E-10  0.594923468067E-11
  0.205973523056E-11  0.688903739486E-12  0.222331470348E-12  0.691545833078E-13  0.207054724989E-13
  0.595997134469E-14  0.164714874766E-14  0.436485333223E-15  0.110753276732E-15  0.268706560863E-16
  0.622445633965E-17  0.137459262016E-17  0.288951110664E-18  0.577245211434E-19  0.109412844330E-19
  0.196432015983E-20  0.333451664768E-21  0.534252434801E-22  0.806388314800E-23  0.114443439873E-23
  0.152413772379E-24  0.190087541465E-25  0.221543785465E-26  0.240764340318E-27  0.243427965791E-28
  0.228444842033E-29
 kinetic energy-density
  0.262449743519E+02  0.264709547615E+02  0.267055375054E+02  0.269490402954E+02  0.272017711248E+02
  0.274640792699E+02  0.277363011659E+02  0.280188258471E+02  0.283120401288E+02  0.286163693969E+02
  0.289322371975E+02  0.292601295005E+02  0.296005198078E+02  0.299539310306E+02  0.303209041873E+02
  0.307020196115E+02  0.310978783866E+02  0.315091228511E+02  0.319364252331E+02  0.323804921472E+02
  0.328420716904E+02  0.333219489433E+02  0.338209493249E+02  0.343399451272E+02  0.348798497020E+02
  0.354416258498E+02  0.360262932827E+02  0.366349034638E+02  0.372685909174E+02  0.379285272066E+02
  0.386159559922E+02  0.393321811028E+02  0.400785759391E+02  0.408565851648E+02  0.416677293561E+02
  0.425136093187E+02  0.433959102185E+02  0.443164065668E+02  0.452769673455E+02  0.462795610379E+02
  0.473262622677E+02  0.484192567917E+02  0.495608484198E+02  0.507534665514E+02  0.519996728960E+02
  0.533021677944E+02  0.546638026572E+02  0.560875812828E+02  0.575766799307E+02  0.591344450717E+02
  0.607644121405E+02  0.624703136314E+02  0.642560912083E+02  0.661259080658E+02  0.680841613989E+02
  0.701354952995E+02  0.722848201355E+02  0.745373222817E+02  0.768984828500E+02  0.793740985197E+02
  0.819702952796E+02  0.846935422467E+02  0.875507104059E+02  0.905490068844E+02  0.936961165799E+02
  0.970001312549E+02  0.100469616739E+03  0.104113634151E+03  0.107941781153E+03  0.111964188675E+03
  0.116191594358E+03  0.120635349695E+03  0.125307473533E+03  0.130220666726E+03  0.135388397083E+03
  0.140824888157E+03  0.146545204484E+03  0.152565297062E+03  0.158902022156E+03  0.165573242160E+03
  0.172597842483E+03  0.179995821525E+03  0.187788327631E+03  0.195997756148E+03  0.204647794032E+03
  0.213763502909E+03  0.223371407701E+03  0.233499569229E+03  0.244177670694E+03  0.255437119295E+03
  0.267311133542E+03  0.279834851566E+03  0.293045435577E+03  0.306982184092E+03  0.321686654593E+03
  0.337202786034E+03  0.353577022975E+03  0.370858467215E+03  0.389099010421E+03  0.408353472114E+03
  0.428679822303E+03  0.450139219130E+03  0.472796337046E+03  0.496719418481E+03  0.521980538304E+03
  0.548655772073E+03  0.576825392849E+03  0.606574108837E+03  0.637991270875E+03  0.671171095516E+03
  0.706212918195E+03  0.743221436960E+03  0.782306959138E+03  0.823585679352E+03  0.867179944362E+03
  0.913218539629E+03  0.961836971927E+03  0.101317777074E+04  0.106739079838E+04  0.112463354185E+04
  0.118507145147E+04  0.124887825299E+04  0.131623626395E+04  0.138733674167E+04  0.146238019784E+04
  0.154157673951E+04  0.162514639746E+04  0.171331944781E+04  0.180633674376E+04  0.190445002238E+04
  0.200792221464E+04  0.211702773507E+04  0.223205275896E+04  0.235329547898E+04  0.248106633924E+04
  0.261568823302E+04  0.275749670389E+04  0.290684001266E+04  0.306407934507E+04  0.322958871993E+04
  0.340375507549E+04  0.358697817334E+04  0.377967041384E+04  0.398225663935E+04  0.419517383784E+04
  0.441887070015E+04  0.465380712717E+04  0.490045358642E+04  0.515929035015E+04  0.543080660352E+04
  0.571549937497E+04  0.601387232692E+04  0.632643436016E+04  0.665369802481E+04  0.699617770841E+04
  0.735438764937E+04  0.772883966997E+04  0.812004068077E+04  0.852848991629E+04  0.895467591863E+04
  0.939907318444E+04  0.986213854938E+04  0.103443072441E+05  0.108459886162E+05  0.113675615498E+05
  0.119093694886E+05  0.124717151755E+05  0.130548550161E+05  0.136589930771E+05  0.142842747900E+05
  0.149307802902E+05  0.155985174400E+05  0.162874145722E+05  0.169973129549E+05  0.177279589925E+05
  0.184789962658E+05  0.192499573820E+05  0.200402557388E+05  0.208491772582E+05  0.216758721391E+05
  0.225193467464E+05  0.233784557141E+05  0.242518943455E+05  0.251381914445E+05  0.260357027907E+05
  0.269426051054E+05  0.278568911203E+05  0.287763653648E+05  0.296986413550E+05  0.306211399307E+05
  0.315410891659E+05  0.324555259519E+05  0.333612994508E+05  0.342550765470E+05  0.351333495839E+05
  0.359924463994E+05  0.368285429989E+05  0.376376787768E+05  0.384157746865E+05  0.391586542164E+05
  0.398620672742E+05  0.405217171796E+05  0.411332905458E+05  0.416924900521E+05  0.421950700704E+05
  0.426368748883E+05  0.430138793121E+05  0.433222313777E+05  0.435582968374E+05  0.437187048295E+05
  0.438003945068E+05  0.438006616804E+05  0.437172052327E+05  0.435481722257E+05  0.432922011981E+05
  0.429484626954E+05  0.425166962381E+05  0.419972428114E+05  0.413910720119E+05  0.406998029208E+05
  0.399257179208E+05  0.390717685914E+05  0.381415729476E+05  0.371394035102E+05  0.360701655840E+05
  0.349393655976E+05  0.337530692774E+05  0.325178499286E+05  0.312407271206E+05  0.299290966078E+05
  0.285906523471E+05  0.272333020268E+05  0.258650774474E+05  0.244940415573E+05  0.231281935095E+05
  0.217753734343E+05  0.204431678514E+05  0.191388166068E+05  0.178691219726E+05  0.166403608342E+05
  0.154582016570E+05  0.143276289852E+05  0.132528791270E+05  0.122373908863E+05  0.112837745179E+05
  0.103938006332E+05  0.956840901517E+04  0.880773563820E+04  0.811115487693E+04  0.747733347530E+04
  0.690429312566E+04  0.638947940966E+04  0.592983580017E+04  0.552188173252E+04  0.516179388091E+04
  0.484548941337E+04  0.456870987009E+04  0.432710383332E+04  0.411630694570E+04  0.393201735830E+04
  0.377006531438E+04  0.362647543597E+04  0.349752073631E+04  0.337976764421E+04  0.327011152897E+04
  0.316580269510E+04  0.306446292759E+04  0.296409297607E+04  0.286307162606E+04  0.276014703790E+04
  0.265442128831E+04  0.254532910810E+04  0.243261166352E+04  0.231628653492E+04  0.219661478544E+04
  0.207406602560E+04  0.194928230198E+04  0.182304159774E+04  0.169622149341E+04  0.156976357838E+04
  0.144463903305E+04  0.132181574505E+04  0.120222746831E+04  0.108674536004E+04  0.976152727315E+03
  0.871123642001E+03  0.772206456664E+03  0.679813568679E+03  0.594218655847E+03  0.515563961064E+03
  0.443878816367E+03  0.379107261413E+03  0.321133589414E+03  0.269787384360E+03  0.224819422329E+03
  0.185869353825E+03  0.152464465987E+03  0.124063180018E+03  0.100112302345E+03  0.800829720480E+02
  0.634818552477E+02  0.498517028345E+02  0.387709195820E+02  0.298542966671E+02  0.227541645665E+02
  0.171610693577E+02  0.128035353640E+02  0.944684871460E+01  0.689099616818E+01  0.496797140686E+01
  0.353866981537E+01  0.248957126333E+01  0.172937839259E+01  0.118574467334E+01  0.802194526569E+00
  0.535307901162E+00  0.352214322265E+00  0.228417306434E+00  0.145949820986E+00  0.918456794774E-01
  0.569004973595E-01  0.346888648551E-01  0.208011702975E-01  0.122633185439E-01  0.710462596902E-02
  0.404267615049E-02  0.225820636521E-02  0.123762289631E-02  0.665115002783E-03  0.350294298488E-03
  0.180689152324E-03  0.912260994342E-04  0.450515723632E-04  0.217475686700E-04  0.102545682851E-04
  0.471971005106E-05  0.211874399448E-05  0.926976106192E-06  0.394942468480E-06  0.163722494273E-06
  0.659797480584E-07  0.258251549573E-07  0.980822087983E-08  0.361093645630E-08  0.128730356406E-08
  0.443919967457E-09  0.147912224629E-09  0.475635908386E-10  0.147433011545E-10  0.439973044327E-11
  0.126244955848E-11  0.347846748490E-12  0.919096325349E-13  0.232557402264E-13  0.562698123348E-14
  0.130004868478E-14  0.286369731839E-15  0.600486683851E-16  0.119672351645E-16  0.226299106830E-17
  0.405352446802E-18  0.686567177174E-19  0.109761196039E-19  0.165318090025E-20  0.234132547500E-21
  0.311178848434E-22  0.387323726437E-23  0.450540294296E-24  0.488695424592E-25  0.493181081997E-26
  0.461981111452E-27
 mkinetic energy-density pseudized
  0.105605773558E-05  0.112585512396E-05  0.120026558909E-05  0.127959402026E-05  0.136416545763E-05
  0.145432642404E-05  0.155044634486E-05  0.165291906166E-05  0.176216444595E-05  0.187863011955E-05
  0.200279328866E-05  0.213516269920E-05  0.227628072131E-05  0.242672557168E-05  0.258711368271E-05
  0.275810222831E-05  0.294039181657E-05  0.313472936042E-05  0.334191113810E-05  0.356278605572E-05
  0.379825912567E-05  0.404929517473E-05  0.431692279740E-05  0.460223857043E-05  0.490641154596E-05
  0.523068804154E-05  0.557639674683E-05  0.594495416774E-05  0.633787043041E-05  0.675675546884E-05
  0.720332562134E-05  0.767941066312E-05  0.818696130355E-05  0.872805717902E-05  0.930491537400E-05
  0.991989950529E-05  0.105755294067E-04  0.112744914539E-04  0.120196495713E-04  0.128140569669E-04
  0.136609686424E-04  0.145638547301E-04  0.155264147117E-04  0.165525925759E-04  0.176465929793E-04
  0.188128984736E-04  0.200562878732E-04  0.213818558350E-04  0.227950337340E-04  0.243016119170E-04
  0.259077634282E-04  0.276200693028E-04  0.294455455312E-04  0.313916718071E-04  0.334664221739E-04
  0.356782976977E-04  0.380363612993E-04  0.405502748882E-04  0.432303389515E-04  0.460875347582E-04
  0.491335693537E-04  0.523809235281E-04  0.558429029542E-04  0.595336927058E-04  0.634684153789E-04
  0.676631930545E-04  0.721352133564E-04  0.769027998749E-04  0.819854872448E-04  0.874041011857E-04
  0.931808438317E-04  0.993393847014E-04  0.105904957680E-03  0.112904464408E-03  0.120366584512E-03
  0.128321893108E-03  0.136802986080E-03  0.145844613634E-03  0.155483822684E-03  0.165760108636E-03
  0.176715577222E-03  0.188395117011E-03  0.200846583333E-03  0.214120994354E-03  0.228272740113E-03
  0.243359805366E-03  0.259444007167E-03  0.276591248146E-03  0.294871786526E-03  0.314360523982E-03
  0.335137312530E-03  0.357287281696E-03  0.380901187299E-03  0.406075783297E-03  0.432914218196E-03
  0.461526457660E-03  0.492029735054E-03  0.524549031752E-03  0.559217589193E-03  0.596177454774E-03
  0.635580063818E-03  0.677586859999E-03  0.722369956766E-03  0.770112842479E-03  0.821011132137E-03
  0.875273368780E-03  0.933121877851E-03  0.994793678015E-03  0.106054145215E-02  0.113063458253E-02
  0.120536025434E-02  0.128502463221E-02  0.136995411440E-02  0.146049666987E-02  0.155702326373E-02
  0.165992937680E-02  0.176963662567E-02  0.188659448967E-02  0.201128215203E-02  0.214421046260E-02
  0.228592403029E-02  0.243700345372E-02  0.259806769914E-02  0.276977663559E-02  0.295283373732E-02
  0.314798896486E-02  0.335604183629E-02  0.357784470136E-02  0.381430623187E-02  0.406639514247E-02
  0.433514415726E-02  0.462165423821E-02  0.492709909279E-02  0.525272997925E-02  0.559988082904E-02
  0.596997370739E-02  0.636452463440E-02  0.678514979018E-02  0.723357212962E-02  0.771162843356E-02
  0.822127682522E-02  0.876460478259E-02  0.934383767918E-02  0.996134788829E-02  0.106196644875E-01
  0.113214836032E-01  0.120696794371E-01  0.128673160192E-01  0.137176597361E-01  0.146241926842E-01
  0.155906269025E-01  0.166209195436E-01  0.177192890429E-01  0.188902323529E-01  0.201385433111E-01
  0.214693322174E-01  0.228880466985E-01  0.244004939447E-01  0.260128644081E-01  0.277317570589E-01
  0.295642062995E-01  0.315177106471E-01  0.336002632973E-01  0.358203846944E-01  0.381871572358E-01
  0.407102622516E-01  0.434000194056E-01  0.462674286762E-01  0.493242150826E-01  0.525828763351E-01
  0.560567335979E-01  0.597599855653E-01  0.637077660642E-01  0.679162054098E-01  0.724024957555E-01
  0.771849606917E-01  0.822831293657E-01  0.877178154105E-01  0.935112009878E-01  0.996869262695E-01
  0.106270184701E+00  0.113287824413E+00  0.120768456159E+00  0.128742568204E+00  0.137242648574E+00
  0.146303315146E+00  0.155961454045E+00  0.166256366871E+00  0.177229927282E+00  0.188926747523E+00
  0.201394355472E+00  0.214683382865E+00  0.228847765342E+00  0.243944955027E+00  0.260036146363E+00
  0.277186515991E+00  0.295465477455E+00  0.314946951599E+00  0.335709653515E+00  0.357837396980E+00
  0.381419417316E+00  0.406550713681E+00  0.433332411793E+00  0.461872148172E+00  0.492284476959E+00
  0.524691300449E+00  0.559222324458E+00  0.596015539689E+00  0.635217730258E+00  0.676985010551E+00
  0.721483391569E+00  0.768889377914E+00  0.819390596518E+00  0.873186458191E+00  0.930488852975E+00
  0.991522880223E+00  0.105652761419E+01  0.112575690580E+01  0.119948022103E+01  0.127798351616E+01
  0.136157014993E+01  0.145056183221E+01  0.154529960838E+01  0.164614487844E+01  0.175348044891E+01
  0.186771161542E+01  0.198926727259E+01  0.211860104769E+01  0.225619245274E+01  0.240254804931E+01
  0.255820261857E+01  0.272372032760E+01  0.289969588161E+01  0.308675564923E+01  0.328555874639E+01
  0.349679806113E+01  0.372120119945E+01  0.395953132843E+01  0.421258788967E+01  0.448120715176E+01
  0.476626256582E+01  0.506866488310E+01  0.538936198784E+01  0.572933839211E+01  0.608961433234E+01
  0.647124439946E+01  0.687531562582E+01  0.730294494283E+01  0.775527591300E+01  0.823347462878E+01
  0.873872465910E+01  0.927222091139E+01  0.983516226366E+01  0.104287428070E+02  0.110541415243E+02
  0.117125102168E+02  0.124049594734E+02  0.131325424662E+02  0.138962363393E+02  0.146969209488E+02
  0.155353546993E+02  0.164121472207E+02  0.173277286223E+02  0.182823150711E+02  0.192758704509E+02
  0.203080638836E+02  0.213782229287E+02  0.224852823318E+02  0.236277282602E+02  0.248035380625E+02
  0.260101157106E+02  0.272442232377E+02  0.285019086841E+02  0.297784313009E+02  0.310681850541E+02
  0.323646218221E+02  0.336601760930E+02  0.349461934526E+02  0.362128657107E+02  0.374491761494E+02
  0.386428590829E+02  0.397803786973E+02  0.408469329735E+02  0.418264893633E+02  0.427018597606E+02
  0.434548231383E+02  0.440663049340E+02  0.445166227894E+02  0.447858084503E+02  0.448540153808E+02
  0.447020207520E+02  0.443118287085E+02  0.436673789430E+02  0.427553603177E+02  0.415661232343E+02
  0.400946763256E+02  0.383417424876E+02  0.363148359821E+02  0.340293061332E+02  0.315092739765E+02
  0.287883663490E+02  0.259101279745E+02  0.229279673185E+02  0.199044683134E+02  0.169098804184E+02
  0.140195879788E+02  0.113103619540E+02  0.885521976768E+01  0.671677071937E+01  0.493901476749E+01
  0.353770180999E+01  0.248957126333E+01  0.172937839259E+01  0.118574467334E+01  0.802194526569E+00
  0.535307901162E+00  0.352214322265E+00  0.228417306434E+00  0.145949820986E+00  0.918456794774E-01
  0.569004973595E-01  0.346888648551E-01  0.208011702975E-01  0.122633185439E-01  0.710462596902E-02
  0.404267615049E-02  0.225820636521E-02  0.123762289631E-02  0.665115002783E-03  0.350294298488E-03
  0.180689152324E-03  0.912260994342E-04  0.450515723632E-04  0.217475686700E-04  0.102545682851E-04
  0.471971005106E-05  0.211874399448E-05  0.926976106192E-06  0.394942468480E-06  0.163722494273E-06
  0.659797480584E-07  0.258251549573E-07  0.980822087983E-08  0.361093645630E-08  0.128730356406E-08
  0.443919967457E-09  0.147912224629E-09  0.475635908386E-10  0.147433011545E-10  0.439973044327E-11
  0.126244955848E-11  0.347846748490E-12  0.919096325349E-13  0.232557402264E-13  0.562698123348E-14
  0.130004868478E-14  0.286369731839E-15  0.600486683851E-16  0.119672351645E-16  0.226299106830E-17
  0.405352446802E-18  0.686567177174E-19  0.109761196039E-19  0.165318090025E-20  0.234132547500E-21
  0.311178848434E-22  0.387323726437E-23  0.450540294296E-24  0.488695424592E-25  0.493181081997E-26
  0.461981111452E-27
 local pseudopotential core
 -0.247010328075E+03 -0.247011613979E+03 -0.247012859436E+03 -0.247014065679E+03 -0.247015233942E+03
 -0.247016365423E+03 -0.247017461283E+03 -0.247018522641E+03 -0.247019550587E+03 -0.247020546173E+03
 -0.247021510420E+03 -0.247022444314E+03 -0.247023348815E+03 -0.247024224846E+03 -0.247025073307E+03
 -0.247025895069E+03 -0.247026690970E+03 -0.247027461830E+03 -0.247028208438E+03 -0.247028931560E+03
 -0.247029631934E+03 -0.247030310281E+03 -0.247030967296E+03 -0.247031603654E+03 -0.247032220007E+03
 -0.247032816987E+03 -0.247033395206E+03 -0.247033955260E+03 -0.247034497722E+03 -0.247035023150E+03
 -0.247035532082E+03 -0.247036025043E+03 -0.247036502540E+03 -0.247036965063E+03 -0.247037413087E+03
 -0.247037847074E+03 -0.247038267473E+03 -0.247038674712E+03 -0.247039069216E+03 -0.247039451390E+03
 -0.247039821627E+03 -0.247040180312E+03 -0.247040527814E+03 -0.247040864493E+03 -0.247041190699E+03
 -0.247041506770E+03 -0.247041813036E+03 -0.247042109811E+03 -0.247042397408E+03 -0.247042676125E+03
 -0.247042946256E+03 -0.247043208082E+03 -0.247043461877E+03 -0.247043707912E+03 -0.247043946443E+03
 -0.247044177724E+03 -0.247044402000E+03 -0.247044619511E+03 -0.247044830490E+03 -0.247045035163E+03
 -0.247045233749E+03 -0.247045426467E+03 -0.247045613526E+03 -0.247045795130E+03 -0.247045971482E+03
 -0.247046142776E+03 -0.247046309205E+03 -0.247046470958E+03 -0.247046628219E+03 -0.247046781168E+03
 -0.247046929985E+03 -0.247047074845E+03 -0.247047215920E+03 -0.247047353381E+03 -0.247047487398E+03
 -0.247047618135E+03 -0.247047745760E+03 -0.247047870437E+03 -0.247047992328E+03 -0.247048111597E+03
 -0.247048228409E+03 -0.247048342924E+03 -0.247048455309E+03 -0.247048565724E+03 -0.247048674340E+03
 -0.247048781321E+03 -0.247048886837E+03 -0.247048991061E+03 -0.247049094168E+03 -0.247049196335E+03
 -0.247049297746E+03 -0.247049398585E+03 -0.247049499042E+03 -0.247049599320E+03 -0.247049699616E+03
 -0.247049800141E+03 -0.247049901112E+03 -0.247050002752E+03 -0.247050105296E+03 -0.247050208985E+03
 -0.247050314073E+03 -0.247050420824E+03 -0.247050529514E+03 -0.247050640431E+03 -0.247050753880E+03
 -0.247050870176E+03 -0.247050989655E+03 -0.247051112670E+03 -0.247051239589E+03 -0.247051370804E+03
 -0.247051506726E+03 -0.247051647791E+03 -0.247051794458E+03 -0.247051947215E+03 -0.247052106576E+03
 -0.247052273085E+03 -0.247052447320E+03 -0.247052629893E+03 -0.247052821454E+03 -0.247053022691E+03
 -0.247053234334E+03 -0.247053457160E+03 -0.247053691992E+03 -0.247053939706E+03 -0.247054201232E+03
 -0.247054477558E+03 -0.247054769736E+03 -0.247055078881E+03 -0.247055406181E+03 -0.247055752901E+03
 -0.247056120382E+03 -0.247056510054E+03 -0.247056923438E+03 -0.247057362153E+03 -0.247057827915E+03
 -0.247058322557E+03 -0.247058848028E+03 -0.247059406399E+03 -0.247059999877E+03 -0.247060630808E+03
 -0.247061301687E+03 -0.247062015171E+03 -0.247062774087E+03 -0.247063581438E+03 -0.247064440426E+03
 -0.247065354449E+03 -0.247066327127E+03 -0.247067362306E+03 -0.247068464078E+03 -0.247069636792E+03
 -0.247070885073E+03 -0.247072213835E+03 -0.247073628301E+03 -0.247075134022E+03 -0.247076736894E+03
 -0.247078443178E+03 -0.247080259521E+03 -0.247082192984E+03 -0.247084251060E+03 -0.247086441693E+03
 -0.247088773314E+03 -0.247091254866E+03 -0.247093895816E+03 -0.247096706207E+03 -0.247099696668E+03
 -0.247102878452E+03 -0.247106263466E+03 -0.247109864300E+03 -0.247113694262E+03 -0.247117767409E+03
 -0.247122098581E+03 -0.247126703426E+03 -0.247131598442E+03 -0.247136801003E+03 -0.247142329392E+03
 -0.247148202825E+03 -0.247154441484E+03 -0.247161066536E+03 -0.247168100157E+03 -0.247175565550E+03
 -0.247183486955E+03 -0.247191889654E+03 -0.247200799970E+03 -0.247210245264E+03 -0.247220253909E+03
 -0.247230855258E+03 -0.247242079609E+03 -0.247253958136E+03 -0.247266522818E+03 -0.247279806341E+03
 -0.247293841982E+03 -0.247308663460E+03 -0.247324304764E+03 -0.247340799952E+03 -0.247358182907E+03
 -0.247376487058E+03 -0.247395745058E+03 -0.247415988408E+03 -0.247437247043E+03 -0.247459548842E+03
 -0.247482919097E+03 -0.247507379897E+03 -0.247532949458E+03 -0.247559641369E+03 -0.247587463771E+03
 -0.247616418438E+03 -0.247646499793E+03 -0.247677693834E+03 -0.247709976974E+03 -0.247743314797E+03
 -0.247777660737E+03 -0.247812954695E+03 -0.247849121569E+03 -0.247886069744E+03 -0.247923689537E+03
 -0.247961851617E+03 -0.248000405419E+03 -0.248039177583E+03 -0.248077970429E+03 -0.248116560520E+03
 -0.248154697332E+03 -0.248192102071E+03 -0.248228466679E+03 -0.248263453068E+03 -0.248296692628E+03
 -0.248327786029E+03 -0.248356303390E+03 -0.248381784816E+03 -0.248403741354E+03 -0.248421656371E+03
 -0.248434987387E+03 -0.248443168340E+03 -0.248445612299E+03 -0.248441714573E+03 -0.248430856193E+03
 -0.248412407704E+03 -0.248385733204E+03 -0.248350194538E+03 -0.248305155553E+03 -0.248249986316E+03
 -0.248184067168E+03 -0.248106792509E+03 -0.248017574196E+03 -0.247915844446E+03 -0.247801058143E+03
 -0.247672694472E+03 -0.247530257801E+03 -0.247373277794E+03 -0.247201308712E+03 -0.247013927927E+03
 -0.246810733676E+03 -0.246591342120E+03 -0.246355383776E+03 -0.246102499429E+03 -0.245832335607E+03
 -0.245544539751E+03 -0.245238755136E+03 -0.244914615659E+03 -0.244571740522E+03 -0.244209728831E+03
 -0.243828154095E+03 -0.243426558538E+03 -0.243004447107E+03 -0.242561280997E+03 -0.242096470444E+03
 -0.241609366528E+03 -0.241099251627E+03 -0.240565328180E+03 -0.240006705359E+03 -0.239422383238E+03
 -0.238811234051E+03 -0.238171980156E+03 -0.237503168313E+03 -0.236803139978E+03 -0.236069997359E+03
 -0.235301565074E+03 -0.234495347425E+03 -0.233648481436E+03 -0.232757686082E+03 -0.231819208419E+03
 -0.230828767713E+03 -0.229781499125E+03 -0.228671898999E+03 -0.227493774352E+03 -0.226240199673E+03
 -0.224903484520E+03 -0.223475155586E+03 -0.221945956808E+03 -0.220305870512E+03 -0.218544161655E+03
 -0.216649445876E+03 -0.214609780547E+03 -0.212412776680E+03 -0.210045728815E+03 -0.207495760439E+03
 -0.204749984509E+03 -0.201795682561E+03 -0.198620511670E+03 -0.195212755815E+03 -0.191561646361E+03
 -0.187657784466E+03 -0.183493705193E+03 -0.179064627815E+03 -0.174369437771E+03 -0.169411941175E+03
 -0.164202419868E+03 -0.158759490168E+03 -0.153112226530E+03 -0.147302447113E+03 -0.141386967098E+03
 -0.135439507763E+03 -0.129552323193E+03 -0.123845051750E+03 -0.118447128101E+03 -0.113492995833E+03
 -0.109117761282E+03 -0.105438698984E+03 -0.102382545538E+03 -0.100135845126E+03 -0.973501107063E+02
 -0.942841229166E+02 -0.913147955782E+02 -0.884389880703E+02 -0.856537519102E+02 -0.829562332531E+02
 -0.803436682568E+02 -0.778133812252E+02 -0.753627813230E+02 -0.729893581641E+02 -0.706906815913E+02
 -0.684643973271E+02 -0.663082258564E+02 -0.642199590619E+02 -0.621974584416E+02 -0.602386528059E+02
 -0.583415361988E+02 -0.565041657907E+02 -0.547246599758E+02 -0.530011963605E+02 -0.513320099959E+02
 -0.497153915415E+02 -0.481496854727E+02 -0.466332884579E+02 -0.451646476239E+02 -0.437422590927E+02
 -0.423646662492E+02 -0.410304584179E+02 -0.397382693061E+02 -0.384867756440E+02 -0.372746958183E+02
 -0.361007885670E+02 -0.349638517093E+02 -0.338627209180E+02 -0.327962685282E+02 -0.317634023879E+02
 -0.307630647405E+02 -0.297942311419E+02 -0.288559094132E+02 -0.279471386242E+02 -0.270669881095E+02
 -0.262145565156E+02 -0.253889708766E+02 -0.245893857211E+02 -0.238149822050E+02 -0.230649672733E+02
 -0.223385728473E+02 -0.216350550384E+02 -0.209536933856E+02 -0.202937901176E+02 -0.196546694387E+02
 -0.190356768361E+02
 pspotential valence only
 -0.115366324139E+03 -0.115367610054E+03 -0.115368855523E+03 -0.115370061780E+03 -0.115371230057E+03
 -0.115372361553E+03 -0.115373457429E+03 -0.115374518804E+03 -0.115375546768E+03 -0.115376542374E+03
 -0.115377506641E+03 -0.115378440558E+03 -0.115379345082E+03 -0.115380221138E+03 -0.115381069626E+03
 -0.115381891417E+03 -0.115382687347E+03 -0.115383458240E+03 -0.115384204883E+03 -0.115384928041E+03
 -0.115385628454E+03 -0.115386306843E+03 -0.115386963903E+03 -0.115387600308E+03 -0.115388216712E+03
 -0.115388813746E+03 -0.115389392023E+03 -0.115389952138E+03 -0.115390494666E+03 -0.115391020164E+03
 -0.115391529170E+03 -0.115392022211E+03 -0.115392499792E+03 -0.115392962405E+03 -0.115393410525E+03
 -0.115393844615E+03 -0.115394265123E+03 -0.115394672478E+03 -0.115395067107E+03 -0.115395449413E+03
 -0.115395819791E+03 -0.115396178627E+03 -0.115396526288E+03 -0.115396863139E+03 -0.115397189528E+03
 -0.115397505793E+03 -0.115397812265E+03 -0.115398109261E+03 -0.115398397094E+03 -0.115398676062E+03
 -0.115398946460E+03 -0.115399208572E+03 -0.115399462671E+03 -0.115399709030E+03 -0.115399947907E+03
 -0.115400179557E+03 -0.115400404226E+03 -0.115400622156E+03 -0.115400833581E+03 -0.115401038730E+03
 -0.115401237824E+03 -0.115401431083E+03 -0.115401618719E+03 -0.115401800938E+03 -0.115401977945E+03
 -0.115402149938E+03 -0.115402317112E+03 -0.115402479660E+03 -0.115402637768E+03 -0.115402791620E+03
 -0.115402941399E+03 -0.115403087286E+03 -0.115403229455E+03 -0.115403368082E+03 -0.115403503343E+03
 -0.115403635405E+03 -0.115403764443E+03 -0.115403890627E+03 -0.115404014124E+03 -0.115404135106E+03
 -0.115404253743E+03 -0.115404370205E+03 -0.115404484664E+03 -0.115404597291E+03 -0.115404708266E+03
 -0.115404817760E+03 -0.115404925956E+03 -0.115405033038E+03 -0.115405139191E+03 -0.115405244606E+03
 -0.115405349478E+03 -0.115405454009E+03 -0.115405558401E+03 -0.115405662873E+03 -0.115405767641E+03
 -0.115405872934E+03 -0.115405978988E+03 -0.115406086047E+03 -0.115406194367E+03 -0.115406304215E+03
 -0.115406415869E+03 -0.115406529620E+03 -0.115406645772E+03 -0.115406764645E+03 -0.115406886575E+03
 -0.115407011913E+03 -0.115407141032E+03 -0.115407274323E+03 -0.115407412198E+03 -0.115407555093E+03
 -0.115407703467E+03 -0.115407857807E+03 -0.115408018626E+03 -0.115408186471E+03 -0.115408361916E+03
 -0.115408545574E+03 -0.115408738089E+03 -0.115408940153E+03 -0.115409152491E+03 -0.115409375879E+03
 -0.115409611137E+03 -0.115409859138E+03 -0.115410120810E+03 -0.115410397138E+03 -0.115410689168E+03
 -0.115410998015E+03 -0.115411324863E+03 -0.115411670969E+03 -0.115412037674E+03 -0.115412426403E+03
 -0.115412838669E+03 -0.115413276087E+03 -0.115413740372E+03 -0.115414233351E+03 -0.115414756965E+03
 -0.115415313282E+03 -0.115415904505E+03 -0.115416532974E+03 -0.115417201183E+03 -0.115417911782E+03
 -0.115418667597E+03 -0.115419471630E+03 -0.115420327079E+03 -0.115421237344E+03 -0.115422206048E+03
 -0.115423237038E+03 -0.115424334414E+03 -0.115425502533E+03 -0.115426746031E+03 -0.115428069839E+03
 -0.115429479200E+03 -0.115430979688E+03 -0.115432577231E+03 -0.115434278129E+03 -0.115436089078E+03
 -0.115438017192E+03 -0.115440070027E+03 -0.115442255614E+03 -0.115444582477E+03 -0.115447059663E+03
 -0.115449696778E+03 -0.115452504014E+03 -0.115455492176E+03 -0.115458672728E+03 -0.115462057816E+03
 -0.115465660312E+03 -0.115469493846E+03 -0.115473572846E+03 -0.115477912579E+03 -0.115482529193E+03
 -0.115487439754E+03 -0.115492662288E+03 -0.115498215820E+03 -0.115504120425E+03 -0.115510397265E+03
 -0.115517068622E+03 -0.115524157951E+03 -0.115531689904E+03 -0.115539690376E+03 -0.115548186532E+03
 -0.115557206840E+03 -0.115566781085E+03 -0.115576940396E+03 -0.115587717253E+03 -0.115599145489E+03
 -0.115611260278E+03 -0.115624098125E+03 -0.115637696819E+03 -0.115652095396E+03 -0.115667334063E+03
 -0.115683454115E+03 -0.115700497821E+03 -0.115718508288E+03 -0.115737529292E+03 -0.115757605080E+03
 -0.115778780131E+03 -0.115801098876E+03 -0.115824605382E+03 -0.115849342974E+03 -0.115875353815E+03
 -0.115902678421E+03 -0.115931355120E+03 -0.115961419440E+03 -0.115992903431E+03 -0.116025834919E+03
 -0.116060236668E+03 -0.116096125485E+03 -0.116133511237E+03 -0.116172395789E+03 -0.116212771869E+03
 -0.116254621858E+03 -0.116297916526E+03 -0.116342613691E+03 -0.116388656848E+03 -0.116435973761E+03
 -0.116484475034E+03 -0.116534052699E+03 -0.116584578827E+03 -0.116635904200E+03 -0.116687857071E+03
 -0.116740242055E+03 -0.116792839178E+03 -0.116845403132E+03 -0.116897662771E+03 -0.116949320905E+03
 -0.117000054406E+03 -0.117049514700E+03 -0.117097328649E+03 -0.117143099882E+03 -0.117186410568E+03
 -0.117226823670E+03 -0.117263885673E+03 -0.117297129778E+03 -0.117326079533E+03 -0.117350252875E+03
 -0.117369166520E+03 -0.117382340648E+03 -0.117389303778E+03 -0.117389597767E+03 -0.117382782819E+03
 -0.117368442389E+03 -0.117346187881E+03 -0.117315663033E+03 -0.117276547865E+03 -0.117228562132E+03
 -0.117171468165E+03 -0.117105073084E+03 -0.117029230308E+03 -0.116943840394E+03 -0.116848851186E+03
 -0.116744257347E+03 -0.116630099329E+03 -0.116506461872E+03 -0.116373472147E+03 -0.116231297654E+03
 -0.116080143993E+03 -0.115920252624E+03 -0.115751898716E+03 -0.115575389153E+03 -0.115391060743E+03
 -0.115199278625E+03 -0.115000434841E+03 -0.114794946961E+03 -0.114583256641E+03 -0.114365827889E+03
 -0.114143144825E+03 -0.113915708635E+03 -0.113684033414E+03 -0.113448640556E+03 -0.113210051348E+03
 -0.112968777421E+03 -0.112725308738E+03 -0.112480098817E+03 -0.112233546957E+03 -0.111985977304E+03
 -0.111737614687E+03 -0.111488557308E+03 -0.111238746539E+03 -0.110987934310E+03 -0.110735648886E+03
 -0.110481160159E+03 -0.110223446027E+03 -0.109961161893E+03 -0.109692615777E+03 -0.109415751954E+03
 -0.109128146298E+03 -0.108827016536E+03 -0.108509250220E+03 -0.108171452404E+03 -0.107810013613E+03
 -0.107421196783E+03 -0.107001239621E+03 -0.106546466515E+03 -0.106053402166E+03 -0.105518877940E+03
 -0.104940121989E+03 -0.104314825547E+03 -0.103641180596E+03 -0.102917887735E+03 -0.102144137096E+03
 -0.101319568787E+03 -0.100444221925E+03 -0.995184825224E+02 -0.985430402364E+02 -0.975188625064E+02
 -0.964471923606E+02 -0.953295736186E+02 -0.941679046517E+02 -0.929645192415E+02 -0.917222898295E+02
 -0.904447436080E+02 -0.891366832567E+02 -0.878133652207E+02 -0.864851757718E+02 -0.851575886326E+02
 -0.838343443171E+02 -0.825090989543E+02 -0.810046734346E+02 -0.794356757612E+02 -0.778918947433E+02
 -0.763412108037E+02 -0.747765122026E+02 -0.732019295950E+02 -0.716215103308E+02 -0.700390137890E+02
 -0.684578152444E+02 -0.668808278829E+02 -0.653104490134E+02 -0.637485466627E+02 -0.621964927586E+02
 -0.606552500638E+02 -0.591255067705E+02 -0.576078464106E+02 -0.561029301224E+02 -0.546116653051E+02
 -0.531353362976E+02 -0.516756793859E+02 -0.502348936387E+02 -0.488155880184E+02 -0.474206721295E+02
 -0.460532024289E+02 -0.447161985015E+02 -0.434124462728E+02 -0.421443072237E+02 -0.409135543861E+02
 -0.397212554177E+02 -0.385677189132E+02 -0.374525115947E+02 -0.363745426801E+02 -0.353322004924E+02
 -0.343235186664E+02 -0.333463471885E+02 -0.323985069107E+02 -0.314779132162E+02 -0.305826625965E+02
 -0.297110828342E+02 -0.288617521360E+02 -0.280334947562E+02 -0.272253608992E+02 -0.264365977236E+02
 -0.256666167438E+02 -0.249149613343E+02 -0.241812766448E+02 -0.234652831490E+02 -0.227667542800E+02
 -0.220854981143E+02 -0.214213427784E+02 -0.207741251201E+02 -0.201436821451E+02 -0.195298447422E+02
 -0.189324332662E+02
 core charge-density (pseudized)
  0.389176972227E-08  0.414898611646E-08  0.442320255885E-08  0.471554262335E-08  0.502720414359E-08
  0.535946412087E-08  0.571368395655E-08  0.609131503031E-08  0.649390464693E-08  0.692310237631E-08
  0.738066681233E-08  0.786847277857E-08  0.838851901018E-08  0.894293634349E-08  0.953399644689E-08
  0.101641211288E-07  0.108358922606E-07  0.115520623559E-07  0.123155658484E-07  0.131295311156E-07
  0.139972932969E-07  0.149224079588E-07  0.159086656641E-07  0.169601075025E-07  0.180810416491E-07
  0.192760610168E-07  0.205500620746E-07  0.219082649110E-07  0.233562346225E-07  0.248999041162E-07
  0.265455984190E-07  0.283000605936E-07  0.301704793680E-07  0.321645185902E-07  0.342903486299E-07
  0.365566798559E-07  0.389727983260E-07  0.415486038351E-07  0.442946504792E-07  0.472221898993E-07
  0.503432173834E-07  0.536705210168E-07  0.572177340789E-07  0.609993909046E-07  0.650309864368E-07
  0.693290397154E-07  0.739111615620E-07  0.787961267385E-07  0.840039508739E-07  0.895559724767E-07
  0.954749403665E-07  0.101785106885E-06  0.108512327265E-06  0.115684165574E-06  0.123330007649E-06
  0.131481181504E-06  0.140171085693E-06  0.149435326155E-06  0.159311862106E-06  0.169841161570E-06
  0.181066367193E-06  0.193033473016E-06  0.205791512925E-06  0.219392761562E-06  0.233892948515E-06
  0.249351486660E-06  0.265831715597E-06  0.283401161175E-06  0.302131812166E-06  0.322100415233E-06
  0.343388789382E-06  0.366084161204E-06  0.390279522273E-06  0.416074010160E-06  0.443573314631E-06
  0.472890110696E-06  0.504144520268E-06  0.537464604345E-06  0.572986887710E-06  0.610856918312E-06
  0.651229863624E-06  0.694271146402E-06  0.740157122466E-06  0.789075803283E-06  0.841227626289E-06
  0.896826276138E-06  0.956099560211E-06  0.101929034200E-05  0.108665753617E-05  0.115847716937E-05
  0.123504351119E-05  0.131667027983E-05  0.140369192743E-05  0.149646501037E-05  0.159536965018E-05
  0.170081109085E-05  0.181322135924E-05  0.193306103504E-05  0.206082113784E-05  0.219702513885E-05
  0.234223110551E-05  0.249703398794E-05  0.266206805635E-05  0.283800949965E-05  0.302557919566E-05
  0.322554566448E-05  0.343872821694E-05  0.366600031114E-05  0.390829313075E-05  0.416659939980E-05
  0.444197744952E-05  0.473555555382E-05  0.504853655137E-05  0.538220277295E-05  0.573792129446E-05
  0.611714953685E-05  0.652144123623E-05  0.695245280820E-05  0.741195013278E-05  0.790181578753E-05
  0.842405675849E-05  0.898081266048E-05  0.957436450047E-05  0.102071440198E-04  0.108817436533E-04
  0.116009271467E-04  0.123676408744E-04  0.131850259058E-04  0.140564308677E-04  0.149854256562E-04
  0.159758160544E-04  0.170316593151E-04  0.181572807721E-04  0.193572915486E-04  0.206366074346E-04
  0.220004690099E-04  0.234544630961E-04  0.250045456238E-04  0.266570660093E-04  0.284187931395E-04
  0.302969430719E-04  0.322992085612E-04  0.344337905341E-04  0.367094316405E-04  0.391354520164E-04
  0.417217874055E-04  0.444790297941E-04  0.474184707244E-04  0.505521474623E-04  0.538928922073E-04
  0.574543845449E-04  0.612512073528E-04  0.652989063896E-04  0.696140538057E-04  0.742143158351E-04
  0.791185249401E-04  0.843467567031E-04  0.899204117738E-04  0.958623032034E-04  0.102196749518E-03
  0.108949673907E-03  0.116148709921E-03  0.123823314112E-03  0.132004886056E-03  0.140726896255E-03
  0.150025022412E-03  0.159937294636E-03  0.170504250152E-03  0.181769098130E-03  0.193777895291E-03
  0.206579732981E-03  0.220226936459E-03  0.234775277181E-03  0.250284198911E-03  0.266817058562E-03
  0.284441382686E-03  0.303229140635E-03  0.323257035438E-03  0.344606813532E-03  0.367365594536E-03
  0.391626222331E-03  0.417487638801E-03  0.445055281639E-03  0.474441507743E-03  0.505766043779E-03
  0.539156465611E-03  0.574748708367E-03  0.612687609037E-03  0.653127483582E-03  0.696232740659E-03
  0.742178534165E-03  0.791151456937E-03  0.843350278063E-03  0.898986726365E-03  0.958286322781E-03
  0.102148926447E-02  0.108885136360E-02  0.116064504400E-02  0.123716039879E-02  0.131870631251E-02
  0.140561165114E-02  0.149822652385E-02  0.159692361994E-02  0.170209962529E-02  0.181417672190E-02
  0.193360417498E-02  0.206086001161E-02  0.219645279522E-02  0.234092350032E-02  0.249484749165E-02
  0.265883661219E-02  0.283354138411E-02  0.301965332691E-02  0.321790739661E-02  0.342908454972E-02
  0.365401443532E-02  0.389357821835E-02  0.414871153627E-02  0.442040759110E-02  0.470972037769E-02
  0.501776804810E-02  0.534573641109E-02  0.569488256387E-02  0.606653865197E-02  0.646211575091E-02
  0.688310786117E-02  0.733109600513E-02  0.780775241173E-02  0.831484477068E-02  0.885424053425E-02
  0.942791123948E-02  0.100379368183E-01  0.106865098570E-01  0.113759397581E-01  0.121086567520E-01
  0.128872156926E-01  0.137142995643E-01  0.145927226136E-01  0.155254330057E-01  0.165155148908E-01
  0.175661897486E-01  0.186808168609E-01  0.198628927383E-01  0.211160493069E-01  0.224440506332E-01
  0.238507879359E-01  0.253402726031E-01  0.269166268979E-01  0.285840719981E-01  0.303469129753E-01
  0.322095202728E-01  0.341763071992E-01  0.362517028991E-01  0.384401202164E-01  0.407459178073E-01
  0.431733558083E-01  0.457265443079E-01  0.484093838198E-01  0.512254969026E-01  0.541781500307E-01
  0.572701647826E-01  0.605038173925E-01  0.638807257039E-01  0.674017225831E-01  0.710667148942E-01
  0.748745272251E-01  0.788227296821E-01  0.829074492618E-01  0.871231645709E-01  0.914624840102E-01
  0.959159079909E-01  0.100471576324E+00  0.105115002638E+00  0.109828798570E+00  0.114592391526E+00
  0.119381741117E+00  0.124169060879E+00  0.128922553663E+00  0.133606171139E+00  0.138179410177E+00
  0.142597161489E+00  0.146809628759E+00  0.150762339558E+00  0.154396272576E+00  0.157648128868E+00
  0.160450777907E+00  0.162733911873E+00  0.164424943568E+00  0.165450184104E+00  0.165736335672E+00
  0.165212331455E+00  0.163811548393E+00  0.161474408026E+00  0.158151365006E+00  0.153806260784E+00
  0.148419990255E+00  0.141994390488E+00  0.134556211973E+00  0.126160973347E+00  0.116896430205E+00
  0.106885308224E+00  0.962868626958E-01  0.852967352591E-01  0.741444910154E-01  0.630881462671E-01
  0.524049535918E-01  0.423777170353E-01  0.332759913320E-01  0.253317062375E-01  0.187090858294E-01
  0.134692408654E-01  0.953059063562E-02  0.665763084618E-02  0.459100928249E-02  0.312416763755E-02
  0.209721343279E-02  0.138826513513E-02  0.905852540178E-03  0.582405913347E-03  0.368806654270E-03
  0.229927648824E-03  0.141062240689E-03  0.851251074428E-04  0.505038277873E-04  0.294438786292E-04
  0.168595492414E-04  0.947643083979E-05  0.522577417529E-05  0.282562084232E-05  0.149718721470E-05
  0.776908518703E-06  0.394564985944E-06  0.195990877434E-06  0.951536779771E-07  0.451212246489E-07
  0.208825558836E-07  0.942548609385E-08  0.414570289118E-08  0.177545703436E-08  0.739721877935E-09
  0.299561863272E-09  0.117804510419E-09  0.449444298064E-10  0.166185445014E-10  0.594923468067E-11
  0.205973523056E-11  0.688903739486E-12  0.222331470348E-12  0.691545833078E-13  0.207054724989E-13
  0.595997134469E-14  0.164714874766E-14  0.436485333223E-15  0.110753276732E-15  0.268706560863E-16
  0.622445633965E-17  0.137459262016E-17  0.288951110664E-18  0.577245211434E-19  0.109412844330E-19
  0.196432015983E-20  0.333451664768E-21  0.534252434801E-22  0.806388314800E-23  0.114443439873E-23
  0.152413772379E-24  0.190087541465E-25  0.221543785465E-26  0.240764340318E-27  0.243427965791E-28
  0.228444842033E-29
 pseudo wavefunction
  0.151874593339E-03  0.156813176209E-03  0.161912349470E-03  0.167177335122E-03  0.172613524971E-03
  0.178226486147E-03  0.184021966816E-03  0.190005902053E-03  0.196184419932E-03  0.202563847793E-03
  0.209150718729E-03  0.215951778269E-03  0.222973991292E-03  0.230224549157E-03  0.237710877067E-03
  0.245440641677E-03  0.253421758938E-03  0.261662402212E-03  0.270171010635E-03  0.278956297765E-03
  0.288027260501E-03  0.297393188301E-03  0.307063672690E-03  0.317048617087E-03  0.327358246946E-03
  0.338003120225E-03  0.348994138202E-03  0.360342556637E-03  0.372059997298E-03  0.384158459863E-03
  0.396650334212E-03  0.409548413110E-03  0.422865905312E-03  0.436616449087E-03  0.450814126187E-03
  0.465473476268E-03  0.480609511777E-03  0.496237733327E-03  0.512374145574E-03  0.529035273603E-03
  0.546238179854E-03  0.564000481592E-03  0.582340368954E-03  0.601276623570E-03  0.620828637803E-03
  0.641016434604E-03  0.661860688022E-03  0.683382744370E-03  0.705604644090E-03  0.728549144320E-03
  0.752239742203E-03  0.776700698948E-03  0.801957064676E-03  0.828034704070E-03  0.854960322868E-03
  0.882761495207E-03  0.911466691861E-03  0.941105309401E-03  0.971707700296E-03  0.100330520399E-02
  0.103593017902E-02  0.106961603612E-02  0.110439727244E-02  0.114030950691E-02  0.117738951669E-02
  0.121567527480E-02  0.125520598907E-02  0.129602214225E-02  0.133816553348E-02  0.138167932107E-02
  0.142660806675E-02  0.147299778124E-02  0.152089597141E-02  0.157035168892E-02  0.162141558043E-02
  0.167413993950E-02  0.172857876011E-02  0.178478779195E-02  0.184282459754E-02  0.190274861114E-02
  0.196462119964E-02  0.202850572537E-02  0.209446761100E-02  0.216257440655E-02  0.223289585852E-02
  0.230550398135E-02  0.238047313113E-02  0.245788008175E-02  0.253780410352E-02  0.262032704433E-02
  0.270553341346E-02  0.279351046810E-02  0.288434830273E-02  0.297813994132E-02  0.307498143263E-02
  0.317497194849E-02  0.327821388541E-02  0.338481296936E-02  0.349487836404E-02  0.360852278268E-02
  0.372586260335E-02  0.384701798820E-02  0.397211300642E-02  0.410127576130E-02  0.423463852131E-02
  0.437233785556E-02  0.451451477360E-02  0.466131486974E-02  0.481288847208E-02  0.496939079642E-02
  0.513098210510E-02  0.529782787107E-02  0.547009894718E-02  0.564797174114E-02  0.583162839597E-02
  0.602125697644E-02  0.621705166152E-02  0.641921294305E-02  0.662794783094E-02  0.684347006489E-02
  0.706600033317E-02  0.729576649829E-02  0.753300383015E-02  0.777795524670E-02  0.803087156236E-02
  0.829201174455E-02  0.856164317854E-02  0.884004194080E-02  0.912749308135E-02  0.942429091510E-02
  0.973073932273E-02  0.100471520613E-01  0.103738530849E-01  0.107111768755E-01  0.110594687849E-01
  0.114190853875E-01  0.117903948443E-01  0.121737772789E-01  0.125696251657E-01  0.129783437304E-01
  0.134003513636E-01  0.138360800474E-01  0.142859757967E-01  0.147504991132E-01  0.152301254555E-01
  0.157253457234E-01  0.162366667580E-01  0.167646118580E-01  0.173097213126E-01  0.178725529511E-01
  0.184536827105E-01  0.190537052212E-01  0.196732344115E-01  0.203129041308E-01  0.209733687938E-01
  0.216553040439E-01  0.223594074388E-01  0.230863991575E-01  0.238370227295E-01  0.246120457871E-01
  0.254122608421E-01  0.262384860860E-01  0.270915662165E-01  0.279723732886E-01  0.288818075941E-01
  0.298207985669E-01  0.307903057173E-01  0.317913195956E-01  0.328248627853E-01  0.338919909261E-01
  0.349937937701E-01  0.361313962690E-01  0.373059596947E-01  0.385186827946E-01  0.397708029807E-01
  0.410635975561E-01  0.423983849762E-01  0.437765261491E-01  0.451994257732E-01  0.466685337152E-01
  0.481853464269E-01  0.497514084042E-01  0.513683136866E-01  0.530377074003E-01  0.547612873443E-01
  0.565408056199E-01  0.583780703054E-01  0.602749471766E-01  0.622333614715E-01  0.642552997035E-01
  0.663428115193E-01  0.684980116051E-01  0.707230816395E-01  0.730202722937E-01  0.753919052785E-01
  0.778403754389E-01  0.803681528947E-01  0.829777852263E-01  0.856718997066E-01  0.884532055756E-01
  0.913244963573E-01  0.942886522176E-01  0.973486423601E-01  0.100507527457E+00  0.103768462114E+00
  0.107134697362E+00  0.110609583176E+00  0.114196571014E+00  0.117899216365E+00  0.121721181315E+00
  0.125666237107E+00  0.129738266693E+00  0.133941267278E+00  0.138279352825E+00  0.142756756533E+00
  0.147377833261E+00  0.152147061877E+00  0.157069047538E+00  0.162148523859E+00  0.167390354966E+00
  0.172799537401E+00  0.178381201859E+00  0.184140614731E+00  0.190083179408E+00  0.196214437332E+00
  0.202540068741E+00  0.209065893063E+00  0.215797868930E+00  0.222742093739E+00  0.229904802720E+00
  0.237292367433E+00  0.244911293639E+00  0.252768218462E+00  0.260869906752E+00  0.269223246573E+00
  0.277835243697E+00  0.286713015013E+00  0.295863780710E+00  0.305294855118E+00  0.315013636052E+00
  0.325027592512E+00  0.335344250555E+00  0.345971177165E+00  0.356915961901E+00  0.368186196129E+00
  0.379789449563E+00  0.391733243895E+00  0.404025023203E+00  0.416672120850E+00  0.429681722553E+00
  0.443060825261E+00  0.456816191477E+00  0.470954298623E+00  0.485481283026E+00  0.500402878063E+00
  0.515724346003E+00  0.531450403023E+00  0.547585136893E+00  0.564131916759E+00  0.581093294465E+00
  0.598470896826E+00  0.616265308249E+00  0.634475943107E+00  0.653100907257E+00  0.672136848124E+00
  0.691578792779E+00  0.711419973497E+00  0.731651640334E+00  0.752262860329E+00  0.773240303069E+00
  0.794568012462E+00  0.816227164770E+00  0.838195813128E+00  0.860448619076E+00  0.882956571924E+00
  0.905686697153E+00  0.928601755527E+00  0.951659935095E+00  0.974814538901E+00  0.998013671933E+00
  0.102119993168E+01  0.104431010756E+01  0.106727489565E+01  0.109001863612E+01  0.111245908242E+01
  0.113450721227E+01  0.115606709246E+01  0.117703581082E+01  0.119730349044E+01  0.121675340311E+01
  0.123526220036E+01  0.125270028220E+01  0.126893232489E+01  0.128381799000E+01  0.129721283732E+01
  0.130896946410E+01  0.131893889120E+01  0.132697221446E+01  0.133292253493E+01  0.133664717509E+01
  0.133801017892E+01  0.133688508190E+01  0.133315792057E+01  0.132673043176E+01  0.131752336692E+01
  0.130547981723E+01  0.129056841074E+01  0.127278620281E+01  0.125216103710E+01  0.122875310681E+01
  0.120265539728E+01  0.117399264408E+01  0.114291840044E+01  0.110960977963E+01  0.107425943037E+01
  0.103706432636E+01  0.998211017112E+00  0.957857110684E+00  0.916108956586E+00  0.873023114334E+00
  0.828853491730E+00  0.783955858280E+00  0.738678734137E+00  0.693355541360E+00  0.648301612096E+00
  0.603811567465E+00  0.560157065678E+00  0.517584915472E+00  0.476315553681E+00  0.436541891517E+00
  0.398428541937E+00  0.362111447505E+00  0.327697930839E+00  0.295267186000E+00  0.264871216826E+00
  0.236536209088E+00  0.210264299827E+00  0.186035683916E+00  0.163810978618E+00  0.143533754980E+00
  0.125133141504E+00  0.108526410581E+00  0.936214702907E-01  0.803192012116E-01  0.685155976685E-01
  0.581036926752E-01  0.489752635553E-01  0.410223286342E-01  0.341384532681E-01  0.282198855141E-01
  0.231665389212E-01  0.188828341093E-01  0.152784042950E-01  0.122686647068E-01  0.977524316117E-02
  0.772626928767E-02  0.605652257225E-02  0.470744365637E-02  0.362701819113E-02  0.276954711518E-02
  0.209532087443E-02  0.157021748167E-02  0.116524532211E-02  0.856051332313E-03  0.622413818104E-03
  0.447736995875E-03  0.318561621769E-03  0.224103079506E-03  0.155825261295E-03  0.107055684091E-03
  0.726446741783E-04
 ae wavefunction
  0.128694369923E-02  0.132840807435E-02  0.137120656352E-02  0.141538197208E-02  0.146097847126E-02
  0.150804164128E-02  0.155661851576E-02  0.160675762747E-02  0.165850905552E-02  0.171192447399E-02
  0.176705720200E-02  0.182396225533E-02  0.188269639962E-02  0.194331820518E-02  0.200588810342E-02
  0.207046844502E-02  0.213712355985E-02  0.220591981865E-02  0.227692569662E-02  0.235021183885E-02
  0.242585112774E-02  0.250391875241E-02  0.258449228019E-02  0.266765173013E-02  0.275347964884E-02
  0.284206118842E-02  0.293348418668E-02  0.302783924984E-02  0.312521983744E-02  0.322572234983E-02
  0.332944621814E-02  0.343649399691E-02  0.354697145921E-02  0.366098769466E-02  0.377865521007E-02
  0.390009003299E-02  0.402541181819E-02  0.415474395702E-02  0.428821368992E-02  0.442595222191E-02
  0.456809484134E-02  0.471478104182E-02  0.486615464749E-02  0.502236394157E-02  0.518356179846E-02
  0.534990581919E-02  0.552155847055E-02  0.569868722774E-02  0.588146472074E-02  0.607006888437E-02
  0.626468311226E-02  0.646549641443E-02  0.667270357904E-02  0.688650533784E-02  0.710710853576E-02
  0.733472630448E-02  0.756957824004E-02  0.781189058459E-02  0.806189641222E-02  0.831983581900E-02
  0.858595611710E-02  0.886051203312E-02  0.914376591061E-02  0.943598791662E-02  0.973745625283E-02
  0.100484573699E-01  0.103692861869E-01  0.107002463142E-01  0.110416502804E-01  0.113938197632E-01
  0.117570858239E-01  0.121317891461E-01  0.125182802768E-01  0.129169198727E-01  0.133280789477E-01
  0.137521391251E-01  0.141894928915E-01  0.146405438540E-01  0.151057069994E-01  0.155854089553E-01
  0.160800882531E-01  0.165901955921E-01  0.171161941051E-01  0.176585596231E-01  0.182177809415E-01
  0.187943600848E-01  0.193888125704E-01  0.200016676704E-01  0.206334686713E-01  0.212847731300E-01
  0.219561531260E-01  0.226481955085E-01  0.233615021377E-01  0.240966901189E-01  0.248543920286E-01
  0.256352561315E-01  0.264399465864E-01  0.272691436408E-01  0.281235438111E-01  0.290038600484E-01
  0.299108218865E-01  0.308451755725E-01  0.318076841751E-01  0.327991276709E-01  0.338203030054E-01
  0.348720241255E-01  0.359551219832E-01  0.370704445044E-01  0.382188565235E-01  0.394012396763E-01
  0.406184922533E-01  0.418715290034E-01  0.431612808902E-01  0.444886947924E-01  0.458547331463E-01
  0.472603735251E-01  0.487066081498E-01  0.501944433273E-01  0.517248988094E-01  0.532990070678E-01
  0.549178124776E-01  0.565823704047E-01  0.582937461882E-01  0.600530140124E-01  0.618612556596E-01
  0.637195591360E-01  0.656290171628E-01  0.675907255225E-01  0.696057812522E-01  0.716752806741E-01
  0.738003172516E-01  0.759819792623E-01  0.782213472750E-01  0.805194914199E-01  0.828774684399E-01
  0.852963185098E-01  0.877770618104E-01  0.903206948433E-01  0.929281864744E-01  0.956004736872E-01
  0.983384570357E-01  0.101142995777E+00  0.104014902668E+00  0.106954938418E+00  0.109963805759E+00
  0.113042143150E+00  0.116190518056E+00  0.119409419826E+00  0.122699252120E+00  0.126060324882E+00
  0.129492845838E+00  0.132996911501E+00  0.136572497660E+00  0.140219449348E+00  0.143937470254E+00
  0.147726111578E+00  0.151584760304E+00  0.155512626877E+00  0.159508732278E+00  0.163571894471E+00
  0.167700714221E+00  0.171893560272E+00  0.176148553882E+00  0.180463552695E+00  0.184836133974E+00
  0.189263577175E+00  0.193742845880E+00  0.198270569099E+00  0.202843021943E+00  0.207456105713E+00
  0.212105327403E+00  0.216785778670E+00  0.221492114304E+00  0.226218530245E+00  0.230958741198E+00
  0.235705957925E+00  0.240452864275E+00  0.245191594051E+00  0.249913707800E+00  0.254610169646E+00
  0.259271324288E+00  0.263886874302E+00  0.268445857902E+00  0.272936627329E+00  0.277346828062E+00
  0.281663379055E+00  0.285872454225E+00  0.289959465440E+00  0.293909047279E+00  0.297705043846E+00
  0.301330497959E+00  0.304767643042E+00  0.307997898089E+00  0.311001866077E+00  0.313759336238E+00
  0.316249290632E+00  0.318449915455E+00  0.320338617595E+00  0.321892046905E+00  0.323086124744E+00
  0.323896079311E+00  0.324296488353E+00  0.324261329795E+00  0.323764040915E+00  0.322777586625E+00
  0.321274537483E+00  0.319227158023E+00  0.316607505988E+00  0.313387543045E+00  0.309539257534E+00
  0.305034799762E+00  0.299846630330E+00  0.293947681901E+00  0.287311534793E+00  0.279912606644E+00
  0.271726356385E+00  0.262729502568E+00  0.252900256038E+00  0.242218566780E+00  0.230666384607E+00
  0.218227933231E+00  0.204889997009E+00  0.190642219542E+00  0.175477412999E+00  0.159391876870E+00
  0.142385724564E+00  0.124463215978E+00  0.105633093874E+00  0.859089215222E-01  0.653094187127E-01
  0.438587927840E-01  0.215870609078E-01 -0.146964055813E-02 -0.252687641390E-01 -0.497610813117E-01
 -0.748904388835E-01 -0.100593545243E+00 -0.126799788833E+00 -0.153431089746E+00 -0.180401784184E+00
 -0.207618541450E+00 -0.234980314739E+00 -0.262378330601E+00 -0.289696127027E+00 -0.316809655231E+00
 -0.343587463914E+00 -0.369890984727E+00 -0.395574933078E+00 -0.420487829924E+00 -0.444472640928E+00
 -0.467367523590E+00 -0.489006672035E+00 -0.509221252693E+00 -0.527840427575E+00 -0.544692463784E+00
 -0.559605928045E+00 -0.572410962037E+00 -0.582940632301E+00 -0.591032345822E+00 -0.596529320851E+00
 -0.599282101176E+00 -0.599150101954E+00 -0.596003174091E+00 -0.589723174772E+00 -0.580205530197E+00
 -0.567360777158E+00 -0.551116068780E+00 -0.531416629265E+00 -0.508227141392E+00 -0.481533049711E+00
 -0.451341760746E+00 -0.417683720470E+00 -0.380613347555E+00 -0.340209799672E+00 -0.296577549018E+00
 -0.249846742452E+00 -0.200173322660E+00 -0.147738888167E+00 -0.927502746351E-01 -0.354388458290E-01
  0.239405089752E-01  0.851106653928E-01  0.147773829428E+00  0.211613364656E+00  0.276295879379E+00
  0.341473602820E+00  0.406787134704E+00  0.471868729973E+00  0.536346350339E+00  0.599848680966E+00
  0.662010953260E+00  0.722480468612E+00  0.780919334386E+00  0.837001503042E+00  0.890404038550E+00
  0.940798430000E+00  0.987850834627E+00  0.103123408149E+01  0.107064416077E+01  0.110581219554E+01
  0.113650964788E+01  0.116254959824E+01  0.118378700650E+01  0.120011919792E+01  0.121148670356E+01
  0.121787416827E+01  0.121931096541E+01  0.121587121655E+01  0.120767303250E+01  0.119487690349E+01
  0.117768327091E+01  0.115632936772E+01  0.113108545395E+01  0.110225058128E+01  0.107014802107E+01
  0.103512048278E+01  0.997525239590E+00  0.957729264165E+00  0.916104466952E+00  0.873023114334E+00
  0.828853491730E+00  0.783955858280E+00  0.738678734137E+00  0.693355541360E+00  0.648301612096E+00
  0.603811567465E+00  0.560157065678E+00  0.517584915472E+00  0.476315553681E+00  0.436541891517E+00
  0.398428541937E+00  0.362111447505E+00  0.327697930839E+00  0.295267186000E+00  0.264871216826E+00
  0.236536209088E+00  0.210264299827E+00  0.186035683916E+00  0.163810978618E+00  0.143533754980E+00
  0.125133141504E+00  0.108526410581E+00  0.936214702907E-01  0.803192012116E-01  0.685155976685E-01
  0.581036926752E-01  0.489752635553E-01  0.410223286342E-01  0.341384532681E-01  0.282198855141E-01
  0.231665389212E-01  0.188828341093E-01  0.152784042950E-01  0.122686647068E-01  0.977524316117E-02
  0.772626928767E-02  0.605652257225E-02  0.470744365637E-02  0.362701819113E-02  0.276954711518E-02
  0.209532087443E-02  0.157021748167E-02  0.116524532211E-02  0.856051332313E-03  0.622413818104E-03
  0.447736995875E-03  0.318561621769E-03  0.224103079506E-03  0.155825261295E-03  0.107055684091E-03
  0.726446741783E-04
 pseudo wavefunction
  0.158123296801E-03  0.163265071917E-03  0.168574044731E-03  0.174055652093E-03  0.179715507649E-03
  0.185559407585E-03  0.191593336563E-03  0.197823473855E-03  0.204256199665E-03  0.210898101665E-03
  0.217755981744E-03  0.224836862968E-03  0.232147996777E-03  0.239696870412E-03  0.247491214577E-03
  0.255539011361E-03  0.263848502409E-03  0.272428197366E-03  0.281286882586E-03  0.290433630137E-03
  0.299877807085E-03  0.309629085091E-03  0.319697450314E-03  0.330093213636E-03  0.340827021226E-03
  0.351909865437E-03  0.363353096068E-03  0.375168431983E-03  0.387367973114E-03  0.399964212854E-03
  0.412970050848E-03  0.426398806205E-03  0.440264231140E-03  0.454580525052E-03  0.469362349072E-03
  0.484624841070E-03  0.500383631164E-03  0.516654857724E-03  0.533455183897E-03  0.550801814675E-03
  0.568712514510E-03  0.587205625512E-03  0.606300086228E-03  0.626015451038E-03  0.646371910180E-03
  0.667390310428E-03  0.689092176440E-03  0.711499732798E-03  0.734635926773E-03  0.758524451821E-03
  0.783189771846E-03  0.808657146258E-03  0.834952655836E-03  0.862103229436E-03  0.890136671574E-03
  0.919081690891E-03  0.948967929562E-03  0.979825993645E-03  0.101168748443E-02  0.104458503078E-02
  0.107855232259E-02  0.111362414524E-02  0.114983641524E-02  0.118722621701E-02  0.122583184085E-02
  0.126569282216E-02  0.130684998193E-02  0.134934546852E-02  0.139322280085E-02  0.143852691294E-02
  0.148530419996E-02  0.153360256568E-02  0.158347147160E-02  0.163496198756E-02  0.168812684402E-02
  0.174302048609E-02  0.179969912929E-02  0.185822081707E-02  0.191864548029E-02  0.198103499858E-02
  0.204545326370E-02  0.211196624496E-02  0.218064205679E-02  0.225155102848E-02  0.232476577618E-02
  0.240036127729E-02  0.247841494721E-02  0.255900671862E-02  0.264221912333E-02  0.272813737679E-02
  0.281684946532E-02  0.290844623626E-02  0.300302149092E-02  0.310067208068E-02  0.320149800613E-02
  0.330560251945E-02  0.341309223017E-02  0.352407721427E-02  0.363867112692E-02  0.375699131883E-02
  0.387915895639E-02  0.400529914574E-02  0.413554106081E-02  0.427001807561E-02  0.440886790074E-02
  0.455223272438E-02  0.470025935784E-02  0.485309938583E-02  0.501090932167E-02  0.517385076745E-02
  0.534209057946E-02  0.551580103899E-02  0.569516002862E-02  0.588035121433E-02  0.607156423340E-02
  0.626899488856E-02  0.647284534827E-02  0.668332435368E-02  0.690064743217E-02  0.712503711786E-02
  0.735672317934E-02  0.759594285467E-02  0.784294109411E-02  0.809797081067E-02  0.836129313879E-02
  0.863317770140E-02  0.891390288567E-02  0.920375612767E-02  0.950303420624E-02  0.981204354643E-02
  0.101311005327E-01  0.104605318324E-01  0.108006747293E-01  0.111518774688E-01  0.115144996131E-01
  0.118889124090E-01  0.122754991668E-01  0.126746556517E-01  0.130867904881E-01  0.135123255765E-01
  0.139516965242E-01  0.144053530896E-01  0.148737596414E-01  0.153573956314E-01  0.158567560842E-01
  0.163723521010E-01  0.169047113810E-01  0.174543787583E-01  0.180219167570E-01  0.186079061636E-01
  0.192129466182E-01  0.198376572238E-01  0.204826771758E-01  0.211486664117E-01  0.218363062807E-01
  0.225463002356E-01  0.232793745461E-01  0.240362790350E-01  0.248177878376E-01  0.256247001852E-01
  0.264578412138E-01  0.273180627976E-01  0.282062444089E-01  0.291232940058E-01  0.300701489465E-01
  0.310477769332E-01  0.320571769851E-01  0.330993804412E-01  0.341754519948E-01  0.352864907599E-01
  0.364336313701E-01  0.376180451113E-01  0.388409410892E-01  0.401035674322E-01  0.414072125304E-01
  0.427532063126E-01  0.441429215605E-01  0.455777752633E-01  0.470592300112E-01  0.485887954305E-01
  0.501680296604E-01  0.517985408725E-01  0.534819888335E-01  0.552200865133E-01  0.570146017371E-01
  0.588673588842E-01  0.607802406334E-01  0.627551897552E-01  0.647942109530E-01  0.668993727512E-01
  0.690728094338E-01  0.713167230308E-01  0.736333853552E-01  0.760251400883E-01  0.784944049154E-01
  0.810436737102E-01  0.836755187680E-01  0.863925930871E-01  0.891976326971E-01  0.920934590341E-01
  0.950829813590E-01  0.981691992201E-01  0.101355204955E+00  0.104644186232E+00  0.108039428624E+00
  0.111544318215E+00  0.115162344235E+00  0.118897101713E+00  0.122752294151E+00  0.126731736205E+00
  0.130839356369E+00  0.135079199655E+00  0.139455430256E+00  0.143972334187E+00  0.148634321881E+00
  0.153445930744E+00  0.158411827635E+00  0.163536811269E+00  0.168825814518E+00  0.174283906582E+00
  0.179916295025E+00  0.185728327632E+00  0.191725494063E+00  0.197913427284E+00  0.204297904716E+00
  0.210884849088E+00  0.217680328928E+00  0.224690558666E+00  0.231921898272E+00  0.239380852393E+00
  0.247074068907E+00  0.255008336832E+00  0.263190583514E+00  0.271627871001E+00  0.280327391507E+00
  0.289296461876E+00  0.298542516922E+00  0.308073101517E+00  0.317895861305E+00  0.328018531886E+00
  0.338448926301E+00  0.349194920663E+00  0.360264437716E+00  0.371665428136E+00  0.383405849333E+00
  0.395493641520E+00  0.407936700770E+00  0.420742848792E+00  0.433919799097E+00  0.447475119240E+00
  0.461416188764E+00  0.475750152480E+00  0.490483868658E+00  0.505623851706E+00  0.521176208866E+00
  0.537146570443E+00  0.553540013057E+00  0.570360975362E+00  0.587613165691E+00  0.605299461030E+00
  0.623421796729E+00  0.641981046342E+00  0.660976890979E+00  0.680407677568E+00  0.700270265428E+00
  0.720559860588E+00  0.741269837336E+00  0.762391546530E+00  0.783914110300E+00  0.805824202883E+00
  0.828105817475E+00  0.850740019156E+00  0.873704684195E+00  0.896974226294E+00  0.920519310671E+00
  0.944306557297E+00  0.968298235064E+00  0.992451949208E+00  0.101672032501E+01  0.104105069151E+01
  0.106538476981E+01  0.108965837172E+01  0.111380111523E+01  0.113773616507E+01  0.116138000747E+01
  0.118464227016E+01  0.120742560003E+01  0.122962561267E+01  0.125113092992E+01  0.127182332317E+01
  0.129157798216E+01  0.131026393045E+01  0.132774461048E+01  0.134387866184E+01  0.135852091711E+01
  0.137152363917E+01  0.138273802271E+01  0.139201597954E+01  0.139921222334E+01  0.140418666205E+01
  0.140680709716E+01  0.140695221602E+01  0.140451484679E+01  0.139940542444E+01  0.139155559015E+01
  0.138092181465E+01  0.136748889895E+01  0.135127316231E+01  0.133232507946E+01  0.131073107568E+01
  0.128661413398E+01  0.126013281385E+01  0.123147823198E+01  0.120086851745E+01  0.116854023534E+01
  0.113473628407E+01  0.109968982680E+01  0.106360392965E+01  0.102662676924E+01  0.988857043041E+00
  0.950609256552E+00  0.912334834573E+00  0.874487580854E+00  0.000000000000E+00  0.000000000000E+00
  0.000000000000E+00  0.000000000000E+00  0.000000000000E+00  0.000000000000E+00  0.000000000000E+00
  0.000000000000E+00  0.000000000000E+00  0.000000000000E+00  0.000000000000E+00  0.000000000000E+00
  0.000000000000E+00  0.000000000000E+00  0.000000000000E+00  0.000000000000E+00  0.000000000000E+00
  0.000000000000E+00  0.000000000000E+00  0.000000000000E+00  0.000000000000E+00  0.000000000000E+00
  0.000000000000E+00  0.000000000000E+00  0.000000000000E+00  0.000000000000E+00  0.000000000000E+00
  0.000000000000E+00  0.000000000000E+00  0.000000000000E+00  0.000000000000E+00  0.000000000000E+00
  0.000000000000E+00  0.000000000000E+00  0.000000000000E+00  0.000000000000E+00  0.000000000000E+00
  0.000000000000E+00  0.000000000000E+00  0.000000000000E+00  0.000000000000E+00  0.000000000000E+00
  0.000000000000E+00  0.000000000000E+00  0.000000000000E+00  0.000000000000E+00  0.000000000000E+00
  0.000000000000E+00
 ae wavefunction
  0.134609681039E-02  0.138946705512E-02  0.143423273517E-02  0.148043862337E-02  0.152813092126E-02
  0.157735730409E-02  0.162816696735E-02  0.168061067457E-02  0.173474080670E-02  0.179061141297E-02
  0.184827826325E-02  0.190779890208E-02  0.196923270428E-02  0.203264093229E-02  0.209808679518E-02
  0.216563550954E-02  0.223535436209E-02  0.230731277425E-02  0.238158236859E-02  0.245823703738E-02
  0.253735301295E-02  0.261900894046E-02  0.270328595250E-02  0.279026774616E-02  0.288004066222E-02
  0.297269376672E-02  0.306831893485E-02  0.316701093746E-02  0.326886752987E-02  0.337398954339E-02
  0.348248097942E-02  0.359444910631E-02  0.371000455891E-02  0.382926144103E-02  0.395233743077E-02
  0.407935388878E-02  0.421043596964E-02  0.434571273631E-02  0.448531727769E-02  0.462938682954E-02
  0.477806289862E-02  0.493149139024E-02  0.508982273930E-02  0.525321204473E-02  0.542181920766E-02
  0.559580907314E-02  0.577535157560E-02  0.596062188808E-02  0.615180057538E-02  0.634907375095E-02
  0.655263323794E-02  0.676267673409E-02  0.697940798082E-02  0.720303693637E-02  0.743377995313E-02
  0.767185995922E-02  0.791750664424E-02  0.817095664939E-02  0.843245376187E-02  0.870224911355E-02
  0.898060138414E-02  0.926777700859E-02  0.956405038888E-02  0.986970411010E-02  0.101850291613E-01
  0.105103251596E-01  0.108459005800E-01  0.111920729880E-01  0.115491692774E-01  0.119175259117E-01
  0.122974891693E-01  0.126894153929E-01  0.130936712425E-01  0.135106339520E-01  0.139406915890E-01
  0.143842433178E-01  0.148416996655E-01  0.153134827910E-01  0.158000267556E-01  0.163017777969E-01
  0.168191946033E-01  0.173527485904E-01  0.179029241786E-01  0.184702190707E-01  0.190551445294E-01
  0.196582256548E-01  0.202800016601E-01  0.209210261453E-01  0.215818673694E-01  0.222631085173E-01
  0.229653479644E-01  0.236891995348E-01  0.244352927532E-01  0.252042730906E-01  0.259968022004E-01
  0.268135581451E-01  0.276552356122E-01  0.285225461175E-01  0.294162181934E-01  0.303369975626E-01
  0.312856472932E-01  0.322629479345E-01  0.332696976309E-01  0.343067122122E-01  0.353748252568E-01
  0.364748881268E-01  0.376077699709E-01  0.387743576922E-01  0.399755558794E-01  0.412122866961E-01
  0.424854897254E-01  0.437961217663E-01  0.451451565780E-01  0.465335845668E-01  0.479624124121E-01
  0.494326626264E-01  0.509453730441E-01  0.525015962333E-01  0.541023988258E-01  0.557488607586E-01
  0.574420744201E-01  0.591831436954E-01  0.609731829025E-01  0.628133156119E-01  0.647046733426E-01
  0.666483941249E-01  0.686456209218E-01  0.706974999001E-01  0.728051785408E-01  0.749698035782E-01
  0.771925187588E-01  0.794744624070E-01  0.818167647861E-01  0.842205452439E-01  0.866869091281E-01
  0.892169444597E-01  0.918117183499E-01  0.944722731461E-01  0.971996222934E-01  0.999947458934E-01
  0.102858585948E+00  0.105792041270E+00  0.108795962039E+00  0.111871144001E+00  0.115018322267E+00
  0.118238164726E+00  0.121531265019E+00  0.124898135090E+00  0.128339197262E+00  0.131854775845E+00
  0.135445088244E+00  0.139110235550E+00  0.142850192596E+00  0.146664797459E+00  0.150553740394E+00
  0.154516552171E+00  0.158552591815E+00  0.162661033719E+00  0.166840854120E+00  0.171090816930E+00
  0.175409458906E+00  0.179795074144E+00  0.184245697904E+00  0.188759089750E+00  0.193332716009E+00
  0.197963731548E+00  0.202648960884E+00  0.207384878617E+00  0.212167589235E+00  0.216992806278E+00
  0.221855830907E+00  0.226751529914E+00  0.231674313202E+00  0.236618110798E+00  0.241576349443E+00
  0.246541928846E+00  0.251507197664E+00  0.256463929310E+00  0.261403297678E+00  0.266315852924E+00
  0.271191497410E+00  0.276019461966E+00  0.280788282639E+00  0.285485778092E+00  0.290099027870E+00
  0.294614351733E+00  0.299017290297E+00  0.303292587254E+00  0.307424173431E+00  0.311395153010E+00
  0.315187792219E+00  0.318783510864E+00  0.322162877064E+00  0.325305605593E+00  0.328190560264E+00
  0.330795760801E+00  0.333098394673E+00  0.335074834403E+00  0.336700660871E+00  0.337950693153E+00
  0.338799025475E+00  0.339219071873E+00  0.339183619134E+00  0.338664888669E+00  0.337634607914E+00
  0.336064091897E+00  0.333924335587E+00  0.331186117653E+00  0.327820116211E+00  0.323797037161E+00
  0.319087755630E+00  0.313663471033E+00  0.307495876191E+00  0.300557340885E+00  0.292821110127E+00
  0.284261517367E+00  0.274854212708E+00  0.264576406107E+00  0.253407125369E+00  0.241327488618E+00
  0.228320990722E+00  0.214373802969E+00  0.199475085103E+00  0.183617308556E+00  0.166796589518E+00
  0.149013030174E+00  0.130271066169E+00  0.110579818012E+00  0.899534437881E-01  0.684114901202E-01
  0.459792379007E-01  0.226880388418E-01 -0.142436152402E-02 -0.263135190898E-01 -0.519280094531E-01
 -0.782091737312E-01 -0.105090895634E+00 -0.132499412250E+00 -0.160353159473E+00 -0.188562651812E+00
 -0.217030396191E+00 -0.245650841083E+00 -0.274310366045E+00 -0.302887322026E+00 -0.331252138214E+00
 -0.359267515024E+00 -0.386788722785E+00 -0.413664020895E+00 -0.439735203321E+00 -0.464838266628E+00
 -0.488804190683E+00 -0.511459821223E+00 -0.532628847144E+00 -0.552132869049E+00 -0.569792557577E+00
 -0.585428900171E+00 -0.598864531871E+00 -0.609925143525E+00 -0.618440958084E+00 -0.624248264013E+00
 -0.627190993428E+00 -0.627122332464E+00 -0.623906350250E+00 -0.617419633429E+00 -0.607552911640E+00
 -0.594212659916E+00 -0.577322662645E+00 -0.556825523198E+00 -0.532684102245E+00 -0.504882866907E+00
 -0.473429131242E+00 -0.438354167456E+00 -0.399714165421E+00 -0.357591016806E+00 -0.312092899038E+00
 -0.263354633399E+00 -0.211537792796E+00 -0.156830536079E+00 -0.994471507183E-01 -0.396272917936E-01
  0.223650859091E-01  0.862430965509E-01  0.151698579137E+00  0.218404026367E+00  0.286014784253E+00
  0.354171552371E+00  0.422503272265E+00  0.490630572471E+00  0.558170012111E+00  0.624739331132E+00
  0.689963543828E+00  0.753480725546E+00  0.814944895738E+00  0.874022953073E+00  0.930385566224E+00
  0.983698082580E+00  0.103362073901E+01  0.107982116344E+01  0.112199159188E+01  0.115986138987E+01
  0.119320251119E+01  0.122183085176E+01  0.124560654122E+01  0.126443447849E+01  0.127826525439E+01
  0.128709616733E+01  0.129097196008E+01  0.128998496654E+01  0.128427448082E+01  0.127402527758E+01
  0.125946532346E+01  0.124086277747E+01  0.121852242171E+01  0.119278167325E+01  0.116400633138E+01
  0.113258620936E+01  0.109893079322E+01  0.106346506010E+01  0.102662558329E+01  0.988857043041E+00
  0.950609256552E+00  0.912334834573E+00  0.874487580854E+00  0.000000000000E+00  0.000000000000E+00
  0.000000000000E+00  0.000000000000E+00  0.000000000000E+00  0.000000000000E+00  0.000000000000E+00
  0.000000000000E+00  0.000000000000E+00  0.000000000000E+00  0.000000000000E+00  0.000000000000E+00
  0.000000000000E+00  0.000000000000E+00  0.000000000000E+00  0.000000000000E+00  0.000000000000E+00
  0.000000000000E+00  0.000000000000E+00  0.000000000000E+00  0.000000000000E+00  0.000000000000E+00
  0.000000000000E+00  0.000000000000E+00  0.000000000000E+00  0.000000000000E+00  0.000000000000E+00
  0.000000000000E+00  0.000000000000E+00  0.000000000000E+00  0.000000000000E+00  0.000000000000E+00
  0.000000000000E+00  0.000000000000E+00  0.000000000000E+00  0.000000000000E+00  0.000000000000E+00
  0.000000000000E+00  0.000000000000E+00  0.000000000000E+00  0.000000000000E+00  0.000000000000E+00
  0.000000000000E+00  0.000000000000E+00  0.000000000000E+00  0.000000000000E+00  0.000000000000E+00
  0.000000000000E+00
 pseudo wavefunction
  0.878587297536E-08  0.936655239357E-08  0.998561030718E-08  0.106455832430E-07  0.113491753729E-07
  0.120992695940E-07  0.128989393410E-07  0.137514611794E-07  0.146603282305E-07  0.156292644844E-07
  0.166622400590E-07  0.177634874662E-07  0.189375189553E-07  0.201891450006E-07  0.215234940124E-07
  0.229460333498E-07  0.244625917227E-07  0.260793830745E-07  0.278030320431E-07  0.296406011042E-07
  0.315996195098E-07  0.336881141381E-07  0.359146423827E-07  0.382883272160E-07  0.408188945694E-07
  0.435167131844E-07  0.463928370974E-07  0.494590509325E-07  0.527279181876E-07  0.562128327124E-07
  0.599280735881E-07  0.638888636345E-07  0.681114317836E-07  0.726130795767E-07  0.774122520548E-07
  0.825286133361E-07  0.879831271867E-07  0.937981429185E-07  0.999974869622E-07  0.106606560494E-06
  0.113652443515E-06  0.121164005808E-06  0.129172025226E-06  0.137709313807E-06  0.146810852212E-06
  0.156513933057E-06  0.166858313716E-06  0.177886379224E-06  0.189643315938E-06  0.202177296694E-06
  0.215539678180E-06  0.229785211371E-06  0.244972265864E-06  0.261163069036E-06  0.278423961023E-06
  0.296825666531E-06  0.316443584632E-06  0.337358097696E-06  0.359654900754E-06  0.383425352620E-06
  0.408766850225E-06  0.435783227691E-06  0.464585181776E-06  0.495290725444E-06  0.528025671408E-06
  0.562924147631E-06  0.600129146904E-06  0.639793112738E-06  0.682078563982E-06  0.727158760726E-06
  0.775218414214E-06  0.826454443669E-06  0.881076783151E-06  0.939309241731E-06  0.100139042052E-05
  0.106757469031E-05  0.113813323380E-05  0.121335515678E-05  0.129354867263E-05  0.137904236527E-05
  0.147018653538E-05  0.156735463581E-05  0.167094480166E-05  0.178138148162E-05  0.189911717709E-05
  0.202463429621E-05  0.215844713043E-05  0.230110396179E-05  0.245318930934E-05  0.261532632415E-05
  0.278817934255E-05  0.297245660809E-05  0.316891317346E-05  0.337835399417E-05  0.360163722665E-05
  0.383967774440E-05  0.409345088645E-05  0.436399645360E-05  0.465242296875E-05  0.495991221879E-05
  0.528772409667E-05  0.563720176347E-05  0.600977715162E-05  0.640697683183E-05  0.683042826774E-05
  0.728186648392E-05  0.776314117457E-05  0.827622428201E-05  0.882321807594E-05  0.940636376674E-05
  0.100280506879E-04  0.106908260853E-04  0.113974055533E-04  0.121506841611E-04  0.129537483132E-04
  0.138098883948E-04  0.147226122521E-04  0.156956595640E-04  0.167330171629E-04  0.178389353684E-04
  0.190179454000E-04  0.202748779406E-04  0.216148829265E-04  0.230434506455E-04  0.245664342283E-04
  0.261900736270E-04  0.279210211770E-04  0.297663688485E-04  0.317336772986E-04  0.338310068423E-04
  0.360669504703E-04  0.384506690481E-04  0.409919288401E-04  0.437011415135E-04  0.465894067841E-04
  0.496685578802E-04  0.529512100087E-04  0.564508120239E-04  0.601817015079E-04  0.641591634904E-04
  0.683994930459E-04  0.729200620253E-04  0.777393901953E-04  0.828772210748E-04  0.883546027800E-04
  0.941939742071E-04  0.100419256906E-03  0.107055953021E-03  0.114131249691E-03  0.121674130356E-03
  0.129715493390E-03  0.138288278586E-03  0.147427601969E-03  0.157170899524E-03  0.167558080388E-03
  0.178631690170E-03  0.190437085025E-03  0.203022617226E-03  0.216439832970E-03  0.230743683219E-03
  0.245992748459E-03  0.262249478262E-03  0.279580446644E-03  0.298056624252E-03  0.317753668480E-03
  0.338752232700E-03  0.361138295860E-03  0.385003513776E-03  0.410445593557E-03  0.437568692668E-03
  0.466483844245E-03  0.497309410389E-03  0.530171565256E-03  0.565204809907E-03  0.602552520975E-03
  0.642367535383E-03  0.684812773426E-03  0.730061902757E-03  0.778300045918E-03  0.829724534245E-03
  0.884545711180E-03  0.942987788172E-03  0.100528975660E-02  0.107170635933E-02  0.114250912573E-02
  0.121798747437E-02  0.129844988750E-02  0.138422516230E-02  0.147566374346E-02  0.157313914253E-02
  0.167704944956E-02  0.178781894279E-02  0.190589980284E-02  0.203177393782E-02  0.216595492653E-02
  0.230899008711E-02  0.246146267914E-02  0.262399424739E-02  0.279724711626E-02  0.298192704411E-02
  0.317878604748E-02  0.338862540566E-02  0.361229885667E-02  0.385071599624E-02  0.410484589222E-02
  0.437572092742E-02  0.466444088430E-02  0.497217728622E-02  0.530017801013E-02  0.564977218655E-02
  0.602237540364E-02  0.641949523252E-02  0.684273709222E-02  0.729381047312E-02  0.777453553864E-02
  0.828685012578E-02  0.883281716572E-02  0.941463254662E-02  0.100346334411E-01  0.106953071221E-01
  0.113993002903E-01  0.121494289387E-01  0.129486887773E-01  0.138002662447E-01  0.147075501294E-01
  0.156741438278E-01  0.167038782613E-01  0.178008254767E-01  0.189693129529E-01  0.202139386339E-01
  0.215395867074E-01  0.229514441459E-01  0.244550180222E-01  0.260561536107E-01  0.277610532755E-01
  0.295762961480E-01  0.315088585819E-01  0.335661353711E-01  0.357559617029E-01  0.380866358087E-01
  0.405669422616E-01  0.432061758518E-01  0.460141659566E-01  0.490013012980E-01  0.521785549577E-01
  0.555575094919E-01  0.591503819572E-01  0.629700486219E-01  0.670300690974E-01  0.713447095776E-01
  0.759289648230E-01  0.807985784655E-01  0.859700611475E-01  0.914607059312E-01  0.972886003351E-01
  0.103472634263E+00  0.110032502988E+00  0.116988704242E+00  0.124362528347E+00  0.132176040176E+00
  0.140452051602E+00  0.149214082927E+00  0.158486311615E+00  0.168293506478E+00  0.178660945281E+00
  0.189614313511E+00  0.201179581888E+00  0.213382859957E+00  0.226250222926E+00  0.239807508694E+00
  0.254080081860E+00  0.269092561319E+00  0.284868507966E+00  0.301430068936E+00  0.318797574807E+00
  0.336989086312E+00  0.356019887267E+00  0.375901920797E+00  0.396643166452E+00  0.418246956543E+00
  0.440711231013E+00  0.464027731485E+00  0.488181136765E+00  0.513148144177E+00  0.538896503656E+00
  0.565384014636E+00  0.592557499450E+00  0.620351771280E+00  0.648688619744E+00  0.677475842843E+00
  0.706606360427E+00  0.735957451233E+00  0.765390163040E+00  0.794748953131E+00  0.823861623907E+00
  0.852539625582E+00  0.880578803873E+00  0.907760674593E+00  0.933854308098E+00  0.958618903267E+00
  0.981807121555E+00  0.100316923484E+01  0.102245811414E+01  0.103943504748E+01  0.105387632193E+01
  0.106558043480E+01  0.107437571009E+01  0.108012798773E+01  0.108274792494E+01  0.108219730315E+01
  0.107849357643E+01  0.107171173609E+01  0.106198241726E+01  0.104948505593E+01  0.103443484928E+01
  0.101706231426E+01  0.997584425971E+00  0.976166700300E+00  0.952876224504E+00  0.927656253179E+00
  0.900600705216E+00  0.871910753830E+00  0.841796521791E+00  0.810470035820E+00  0.778143481372E+00
  0.745027526881E+00  0.711329698206E+00  0.677252787939E+00  0.642993280745E+00  0.608739794745E+00
  0.574671549653E+00  0.540956898197E+00  0.507751969037E+00  0.475199490662E+00  0.443427864063E+00
  0.412550545739E+00  0.382665782606E+00  0.353856712731E+00  0.326191814688E+00  0.299725658771E+00
  0.274499889271E+00  0.250544351186E+00  0.227878268727E+00  0.206511387162E+00  0.186445003692E+00
  0.167672835746E+00  0.150181703690E+00  0.133952035349E+00  0.118958227044E+00  0.105168915362E+00
  0.925472224365E-01  0.810510345523E-01  0.706333613218E-01  0.612428042591E-01  0.528241435041E-01
  0.453190333741E-01  0.386667836631E-01  0.328051950984E-01  0.276714139097E-01  0.232027711704E-01
  0.193375762511E-01  0.160158392288E-01  0.131799034259E-01  0.107749756772E-01  0.874954793777E-02
  0.705570913592E-02  0.564935060515E-02  0.449027193363E-02  0.354219668325E-02  0.277270921105E-02
  0.215312486472E-02
 ae wavefunction
 -0.615295782410E-06 -0.652583478930E-06 -0.691944293124E-06 -0.733504622933E-06 -0.777398124812E-06
 -0.823766167626E-06 -0.872758313512E-06 -0.924532829676E-06 -0.979257228712E-06 -0.103710884510E-05
 -0.109827544334E-05 -0.116295586851E-05 -0.123136073188E-05 -0.130371314317E-05 -0.138024948556E-05
 -0.146122024102E-05 -0.154689086544E-05 -0.163754272005E-05 -0.173347406033E-05 -0.183500108624E-05
 -0.194245906064E-05 -0.205620349586E-05 -0.217661141641E-05 -0.230408270136E-05 -0.243904151037E-05
 -0.258193780136E-05 -0.273324894569E-05 -0.289348143945E-05 -0.306317273261E-05 -0.324289316779E-05
 -0.343324804466E-05 -0.363487981600E-05 -0.384847042372E-05 -0.407474378370E-05 -0.431446842985E-05
 -0.456846032699E-05 -0.483758586406E-05 -0.512276503881E-05 -0.542497484694E-05 -0.574525288832E-05
 -0.608470120511E-05 -0.644449036617E-05 -0.682586381370E-05 -0.723014249009E-05 -0.765872976154E-05
 -0.811311665923E-05 -0.859488745725E-05 -0.910572561013E-05 -0.964742007246E-05 -0.102218720269E-04
 -0.108311020426E-04 -0.114772576987E-04 -0.121626216973E-04 -0.128896204981E-04 -0.136608335138E-04
 -0.144790028910E-04 -0.153470439307E-04 -0.162680561724E-04 -0.172453351959E-04 -0.182823851849E-04
 -0.193829322964E-04 -0.205509388917E-04 -0.217906186918E-04 -0.231064528969E-04 -0.245032073338E-04
 -0.259859507550E-04 -0.275600742445E-04 -0.292313119220E-04 -0.310057629691E-04 -0.328899150417E-04
 -0.348906692307E-04 -0.370153665720E-04 -0.392718163124E-04 -0.416683259300E-04 -0.442137331246E-04
 -0.469174398286E-04 -0.497894483895E-04 -0.528404000973E-04 -0.560816161205E-04 -0.595251411056E-04
 -0.631837895156E-04 -0.670711949487E-04 -0.712018625686E-04 -0.755912248956E-04 -0.802557011177E-04
 -0.852127601727E-04 -0.904809878273E-04 -0.960801580066E-04 -0.102031308621E-03 -0.108356822192E-03
 -0.115080511555E-03 -0.122227710964E-03 -0.129825372924E-03 -0.137902171096E-03 -0.146488609669E-03
 -0.155617139570E-03 -0.165322281934E-03 -0.175640759278E-03 -0.186611634879E-03 -0.198276460721E-03
 -0.210679434780E-03 -0.223867567877E-03 -0.237890860976E-03 -0.252802493330E-03 -0.268659022273E-03
 -0.285520595229E-03 -0.303451174705E-03 -0.322518777077E-03 -0.342795725872E-03 -0.364358920480E-03
 -0.387290121117E-03 -0.411676251045E-03 -0.437609716963E-03 -0.465188748652E-03 -0.494517758945E-03
 -0.525707725176E-03 -0.558876593275E-03 -0.594149705814E-03 -0.631660255286E-03 -0.671549764005E-03
 -0.713968592079E-03 -0.759076474972E-03 -0.807043092202E-03 -0.858048668862E-03 -0.912284611653E-03
 -0.969954181226E-03 -0.103127320270E-02 -0.109647081630E-02 -0.116579027004E-02 -0.123948975673E-02
 -0.131784329719E-02 -0.140114167214E-02 -0.148969340491E-02 -0.158382579741E-02 -0.168388602179E-02
 -0.179024227017E-02 -0.190328496525E-02 -0.202342803404E-02 -0.215111024775E-02 -0.228679663016E-02
 -0.243097993751E-02 -0.258418221242E-02 -0.274695641466E-02 -0.291988813153E-02 -0.310359737054E-02
 -0.329874043700E-02 -0.350601189926E-02 -0.372614664398E-02 -0.395992202389E-02 -0.420816010037E-02
 -0.447172998281E-02 -0.475155026680E-02 -0.504859157258E-02 -0.536387918528E-02 -0.569849579782E-02
 -0.605358435712E-02 -0.643035101375E-02 -0.683006817454E-02 -0.725407765736E-02 -0.770379394624E-02
 -0.818070754451E-02 -0.868638842265E-02 -0.922248955671E-02 -0.979075055195E-02 -0.103930013454E-01
 -0.110311659793E-01 -0.117072664370E-01 -0.124234265294E-01 -0.131818758205E-01 -0.139849535775E-01
 -0.148351127287E-01 -0.157349238103E-01 -0.166870788825E-01 -0.176943953888E-01 -0.187598199340E-01
 -0.198864319504E-01 -0.210774472181E-01 -0.223362212051E-01 -0.236662521850E-01 -0.250711840882E-01
 -0.265548090385E-01 -0.281210695210E-01 -0.297740601229E-01 -0.315180287851E-01 -0.333573774945E-01
 -0.352966623428E-01 -0.373405928723E-01 -0.394940306219E-01 -0.417619867801E-01 -0.441496188465E-01
 -0.466622261959E-01 -0.493052444320E-01 -0.520842384113E-01 -0.550048938118E-01 -0.580730071125E-01
 -0.612944738448E-01 -0.646752749693E-01 -0.682214612272E-01 -0.719391353079E-01 -0.758344316690E-01
 -0.799134938458E-01 -0.841824490758E-01 -0.886473800690E-01 -0.933142937492E-01 -0.981890867937E-01
 -0.103277507801E+00 -0.108585115922E+00 -0.114117235786E+00 -0.119878908589E+00 -0.125874839180E+00
 -0.132109339045E+00 -0.138586265063E+00 -0.145308953957E+00 -0.152280152386E+00 -0.159501942634E+00
 -0.166975663911E+00 -0.174701829305E+00 -0.182680038463E+00 -0.190908886151E+00 -0.199385866871E+00
 -0.208107275783E+00 -0.217068106272E+00 -0.226261944531E+00 -0.235680861682E+00 -0.245315304000E+00
 -0.255153981971E+00 -0.265183759030E+00 -0.275389540970E+00 -0.285754167203E+00 -0.296258305192E+00
 -0.306880349533E+00 -0.317596327217E+00 -0.328379810575E+00 -0.339201839105E+00 -0.350030850845E+00
 -0.360832623092E+00 -0.371570221099E+00 -0.382203952306E+00 -0.392691323007E+00 -0.402986994833E+00
 -0.413042740466E+00 -0.422807401687E+00 -0.432226857522E+00 -0.441244014923E+00 -0.449798837217E+00
 -0.457828425701E+00 -0.465267165667E+00 -0.472046940584E+00 -0.478097409044E+00 -0.483346332110E+00
 -0.487719937254E+00 -0.491143308582E+00 -0.493540799560E+00 -0.494836469048E+00 -0.494954543444E+00
 -0.493819907692E+00 -0.491358625207E+00 -0.487498485395E+00 -0.482169575794E+00 -0.475304875286E+00
 -0.466840864483E+00 -0.456718149896E+00 -0.444882098134E+00 -0.431283477203E+00 -0.415879101120E+00
 -0.398632474624E+00 -0.379514433973E+00 -0.358503779468E+00 -0.335587894624E+00 -0.310763346226E+00
 -0.284036458277E+00 -0.255423851975E+00 -0.224952942386E+00 -0.192662381419E+00 -0.158602435599E+00
 -0.122835286269E+00 -0.854352400773E-01 -0.464888381069E-01 -0.609485446168E-02  0.356358216107E-01
  0.785804213528E-01  0.122604646594E+00  0.167563128348E+00  0.213299990430E+00  0.259649526541E+00
  0.306437025662E+00  0.353479825187E+00  0.400588731965E+00  0.447570004736E+00  0.494228061893E+00
  0.540368792953E+00  0.585802605574E+00  0.630345257279E+00  0.673814206874E+00  0.716020467492E+00
  0.756760588619E+00  0.795815801065E+00  0.832960582793E+00  0.867974915097E+00  0.900653116439E+00
  0.930807480326E+00  0.958268982923E+00  0.982887390244E+00  0.100453177597E+01  0.102309157098E+01
  0.103847792626E+01  0.105062510014E+01  0.105949161518E+01  0.106506101332E+01  0.106734211944E+01
  0.106636880299E+01  0.106219926929E+01  0.105491494422E+01  0.104461902278E+01  0.103143475447E+01
  0.101550353457E+01  0.996982865105E+00  0.976044240850E+00  0.952871010387E+00  0.927656253179E+00
  0.900600705216E+00  0.871910753830E+00  0.841796521791E+00  0.810470035820E+00  0.778143481372E+00
  0.745027526881E+00  0.711329698206E+00  0.677252787939E+00  0.642993280745E+00  0.608739794745E+00
  0.574671549653E+00  0.540956898197E+00  0.507751969037E+00  0.475199490662E+00  0.443427864063E+00
  0.412550545739E+00  0.382665782606E+00  0.353856712731E+00  0.326191814688E+00  0.299725658771E+00
  0.274499889271E+00  0.250544351186E+00  0.227878268727E+00  0.206511387162E+00  0.186445003692E+00
  0.167672835746E+00  0.150181703690E+00  0.133952035349E+00  0.118958227044E+00  0.105168915362E+00
  0.925472224365E-01  0.810510345523E-01  0.706333613218E-01  0.612428042591E-01  0.528241435041E-01
  0.453190333741E-01  0.386667836631E-01  0.328051950984E-01  0.276714139097E-01  0.232027711704E-01
  0.193375762511E-01  0.160158392288E-01  0.131799034259E-01  0.107749756772E-01  0.874954793777E-02
  0.705570913592E-02  0.564935060515E-02  0.449027193363E-02  0.354219668325E-02  0.277270921105E-02
  0.215312486472E-02
 pseudo wavefunction
  0.111876389569E-07  0.119270568495E-07  0.127153446440E-07  0.135557322693E-07  0.144516631282E-07
  0.154068082062E-07  0.164250811130E-07  0.175106541182E-07  0.186679752465E-07  0.199017865035E-07
  0.212171433052E-07  0.226194351920E-07  0.241144079121E-07  0.257081869639E-07  0.274073026948E-07
  0.292187170583E-07  0.311498521401E-07  0.332086205695E-07  0.354034579401E-07  0.377433573744E-07
  0.402379063718E-07  0.428973260923E-07  0.457325132369E-07  0.487550846958E-07  0.519774251470E-07
  0.554127378017E-07  0.590750985028E-07  0.629795133992E-07  0.671419804323E-07  0.715795548853E-07
  0.763104192662E-07  0.813539578081E-07  0.867308358944E-07  0.924630847329E-07  0.985741916267E-07
  0.105089196210E-06  0.112034793048E-06  0.119439441011E-06  0.127333479886E-06  0.135749254686E-06
  0.144721248185E-06  0.154286222205E-06  0.164483368244E-06  0.175354468060E-06  0.186944064865E-06
  0.199299645839E-06  0.212471836700E-06  0.226514609143E-06  0.241485501976E-06  0.257445856887E-06
  0.274461069778E-06  0.292600858721E-06  0.311939549619E-06  0.332556380752E-06  0.354535827440E-06
  0.377967948177E-06  0.402948753634E-06  0.429580600051E-06  0.457972608633E-06  0.488241112658E-06
  0.520510134140E-06  0.554911891999E-06  0.591587343807E-06  0.630686763349E-06  0.672370356351E-06
  0.716808916903E-06  0.764184527270E-06  0.814691303948E-06  0.868536193036E-06  0.925939818169E-06
  0.987137384499E-06  0.105237964241E-05  0.112193391496E-05  0.119608519316E-05  0.127513730373E-05
  0.135941415396E-05  0.144926105888E-05  0.154504615617E-05  0.164716191448E-05  0.175602674162E-05
  0.187208669882E-05  0.199581732846E-05  0.212772560253E-05  0.226835199983E-05  0.241827272053E-05
  0.257810204707E-05  0.274849486102E-05  0.293014932639E-05  0.312380975024E-05  0.333026963230E-05
  0.355037491624E-05  0.378502745570E-05  0.403518870951E-05  0.430188368105E-05  0.458620511796E-05
  0.488931798950E-05  0.521246425964E-05  0.555696797582E-05  0.592424069386E-05  0.631578726145E-05
  0.673321198386E-05  0.717822519718E-05  0.765265027588E-05  0.815843110358E-05  0.869764003749E-05
  0.927248639923E-05  0.988532552674E-05  0.105386684245E-04  0.112351920514E-04  0.119777502884E-04
  0.127693856315E-04  0.136133416567E-04  0.145130763091E-04  0.154722760705E-04  0.164948710625E-04
  0.175850511486E-04  0.187472830993E-04  0.199863288924E-04  0.213072652223E-04  0.227155042983E-04
  0.242168160174E-04  0.258173516025E-04  0.275236688020E-04  0.293427587552E-04  0.312820746321E-04
  0.333495621664E-04  0.355536922053E-04  0.379034954103E-04  0.404085992502E-04  0.430792674392E-04
  0.459264419800E-04  0.489617879841E-04  0.521977414541E-04  0.556475602223E-04  0.593253782540E-04
  0.632462635386E-04  0.674262798047E-04  0.718825523115E-04  0.766333379861E-04  0.816981001937E-04
  0.870975884454E-04  0.928539233709E-04  0.989906873026E-04  0.105533020842E-03  0.112507725801E-03
  0.119943374944E-03  0.127870428972E-03  0.136321361235E-03  0.145330790668E-03  0.154935623516E-03
  0.165175204401E-03  0.176091477368E-03  0.187729157557E-03  0.200135914200E-03  0.213362565695E-03
  0.227463287554E-03  0.242495834059E-03  0.258521774547E-03  0.275606745273E-03  0.293820717883E-03
  0.313238285584E-03  0.333938968181E-03  0.356007537219E-03  0.379534362547E-03  0.404615781714E-03
  0.431354493702E-03  0.459859978580E-03  0.490248944791E-03  0.522645805881E-03  0.557183188593E-03
  0.594002474389E-03  0.633254376579E-03  0.675099555400E-03  0.719709273505E-03  0.767266094519E-03
  0.817964627465E-03  0.872012320052E-03  0.929630304009E-03  0.991054295847E-03  0.105653555667E-02
  0.112634191482E-02  0.120075885555E-02  0.128009068189E-02  0.136466175144E-02  0.145481779404E-02
  0.155092731530E-02  0.165338309186E-02  0.176260376393E-02  0.187903553163E-02  0.200315396157E-02
  0.213546591090E-02  0.227651157611E-02  0.242686667472E-02  0.258714476811E-02  0.275799973455E-02
  0.294012840181E-02  0.313427334939E-02  0.334122589100E-02  0.356182924856E-02  0.379698192953E-02
  0.404764132023E-02  0.431482750833E-02  0.459962734869E-02  0.490319878713E-02  0.522677545801E-02
  0.557167157181E-02  0.593928711020E-02  0.633111334664E-02  0.674873871183E-02  0.719385502383E-02
  0.766826410400E-02  0.817388480079E-02  0.871276044412E-02  0.928706675450E-02  0.989912023173E-02
  0.105513870490E-01  0.112464924790E-01  0.119872308806E-01  0.127765762728E-01  0.136176935272E-01
  0.145139502077E-01  0.154689290878E-01  0.164864413766E-01  0.175705406846E-01  0.187255377593E-01
  0.199560160219E-01  0.212668479345E-01  0.226632122263E-01  0.241506120062E-01  0.257348937871E-01
  0.274222674426E-01  0.292193271177E-01  0.311330731044E-01  0.331709346944E-01  0.353407940091E-01
  0.376510108029E-01  0.401104482247E-01  0.427284995119E-01  0.455151155776E-01  0.484808334383E-01
  0.516368054091E-01  0.549948289732E-01  0.585673772117E-01  0.623676296461E-01  0.664095033212E-01
  0.707076839127E-01  0.752776566092E-01  0.801357364650E-01  0.852990978706E-01  0.907858027258E-01
  0.966148268310E-01  0.102806083937E+00  0.109380446805E+00  0.116359764538E+00  0.123766875318E+00
  0.131625613604E+00  0.139960810657E+00  0.148798287169E+00  0.158164836568E+00  0.168088197426E+00
  0.178597013193E+00  0.189720777277E+00  0.201489761270E+00  0.213934923893E+00  0.227087797972E+00
  0.240980352515E+00  0.255644826690E+00  0.271113532225E+00  0.287418620514E+00  0.304591810425E+00
  0.322664072597E+00  0.341665265804E+00  0.361623720798E+00  0.382565766969E+00  0.404515197152E+00
  0.427492666022E+00  0.451515017786E+00  0.476594539311E+00  0.502738135522E+00  0.529946424834E+00
  0.558212753671E+00  0.587522130800E+00  0.617850084360E+00  0.649161447126E+00  0.681409078840E+00
  0.714532538426E+00  0.748456723599E+00  0.783090500949E+00  0.818325355936E+00  0.854034099513E+00
  0.890069676123E+00  0.926264126665E+00  0.962427769352E+00  0.998348671020E+00  0.103379249093E+01
  0.106850278786E+01  0.110220188837E+01  0.113459241904E+01  0.116535960578E+01  0.119417443892E+01
  0.122069779026E+01  0.124458554639E+01  0.126549478810E+01  0.128309099661E+01  0.129705619995E+01
  0.130709788555E+01  0.131295839548E+01  0.131442438817E+01  0.131133579632E+01  0.130359353859E+01
  0.129116506069E+01  0.127408660314E+01  0.125246093713E+01  0.122644920595E+01  0.119625549301E+01
  0.116210285733E+01  0.112419988812E+01  0.108269739757E+01  0.103763575821E+01  0.988921119676E+00
  0.936605439382E+00  0.880864780210E+00  0.821873549404E+00  0.000000000000E+00  0.000000000000E+00
  0.000000000000E+00  0.000000000000E+00  0.000000000000E+00  0.000000000000E+00  0.000000000000E+00
  0.000000000000E+00  0.000000000000E+00  0.000000000000E+00  0.000000000000E+00  0.000000000000E+00
  0.000000000000E+00  0.000000000000E+00  0.000000000000E+00  0.000000000000E+00  0.000000000000E+00
  0.000000000000E+00  0.000000000000E+00  0.000000000000E+00  0.000000000000E+00  0.000000000000E+00
  0.000000000000E+00  0.000000000000E+00  0.000000000000E+00  0.000000000000E+00  0.000000000000E+00
  0.000000000000E+00  0.000000000000E+00  0.000000000000E+00  0.000000000000E+00  0.000000000000E+00
  0.000000000000E+00  0.000000000000E+00  0.000000000000E+00  0.000000000000E+00  0.000000000000E+00
  0.000000000000E+00  0.000000000000E+00  0.000000000000E+00  0.000000000000E+00  0.000000000000E+00
  0.000000000000E+00  0.000000000000E+00  0.000000000000E+00  0.000000000000E+00  0.000000000000E+00
  0.000000000000E+00
 ae wavefunction
 -0.775409149779E-06 -0.822399926436E-06 -0.872003291473E-06 -0.924378534375E-06 -0.979694091974E-06
 -0.103812812044E-05 -0.109986910131E-05 -0.116511648641E-05 -0.123408137884E-05 -0.130698725943E-05
 -0.138407075319E-05 -0.146558244909E-05 -0.155178776412E-05 -0.164296786612E-05 -0.173942065040E-05
 -0.184146177993E-05 -0.194942578810E-05 -0.206366725259E-05 -0.218456204161E-05 -0.231250863736E-05
 -0.244792954555E-05 -0.259127279073E-05 -0.274301350762E-05 -0.290365563268E-05 -0.307373370138E-05
 -0.325381476074E-05 -0.344450040475E-05 -0.364642893111E-05 -0.386027764624E-05 -0.408676530865E-05
 -0.432665473048E-05 -0.458075554508E-05 -0.484992715088E-05 -0.513508184283E-05 -0.543718814455E-05
 -0.575727435316E-05 -0.609643231134E-05 -0.645582142089E-05 -0.683667291361E-05 -0.724029439610E-05
 -0.766807468656E-05 -0.812148896209E-05 -0.860210423639E-05 -0.911158519068E-05 -0.965170037848E-05
 -0.102243288307E-04 -0.108314670852E-04 -0.114752366689E-04 -0.121578920627E-04 -0.128818291796E-04
 -0.136495943862E-04 -0.144638941099E-04 -0.153276050631E-04 -0.162437851248E-04 -0.172156849288E-04
 -0.182467601900E-04 -0.193406848361E-04 -0.205013649763E-04 -0.217329537743E-04 -0.230398672812E-04
 -0.244268012837E-04 -0.258987492385E-04 -0.274610213715E-04 -0.291192649918E-04 -0.308794861014E-04
 -0.327480724560E-04 -0.347318180207E-04 -0.368379490620E-04 -0.390741519053E-04 -0.414486024402E-04
 -0.439699975762E-04 -0.466475886516E-04 -0.494912170540E-04 -0.525113520538E-04 -0.557191311181E-04
 -0.591264027729E-04 -0.627457722001E-04 -0.665906497918E-04 -0.706753027373E-04 -0.750149099696E-04
 -0.796256205611E-04 -0.845246158765E-04 -0.897301756465E-04 -0.952617482770E-04 -0.101140025594E-03
 -0.107387022343E-03 -0.114026160718E-03 -0.121082360259E-03 -0.128582133408E-03 -0.136553687112E-03
 -0.145027030836E-03 -0.154034091364E-03 -0.163608834837E-03 -0.173787396435E-03 -0.184608218206E-03
 -0.196112195521E-03 -0.208342832668E-03 -0.221346408168E-03 -0.235172150413E-03 -0.249872424115E-03
 -0.265502928525E-03 -0.282122907694E-03 -0.299795373915E-03 -0.318587344829E-03 -0.338570095197E-03
 -0.359819424090E-03 -0.382415938419E-03 -0.406445353862E-03 -0.431998814053E-03 -0.459173229222E-03
 -0.488071635299E-03 -0.518803574787E-03 -0.551485500521E-03 -0.586241203687E-03 -0.623202267474E-03
 -0.662508547767E-03 -0.704308682404E-03 -0.748760630599E-03 -0.796032244169E-03 -0.846301872316E-03
 -0.899759001771E-03 -0.956604934242E-03 -0.101705350308E-02 -0.108133183135E-02 -0.114968113332E-02
 -0.122235756178E-02 -0.129963310345E-02 -0.138179652487E-02 -0.146915437146E-02 -0.156203202220E-02
 -0.166077480269E-02 -0.176574915957E-02 -0.187734389884E-02 -0.199597149145E-02 -0.212206944895E-02
 -0.225610177243E-02 -0.239856047802E-02 -0.254996720211E-02 -0.271087488982E-02 -0.288186956981E-02
 -0.306357221914E-02 -0.325664072157E-02 -0.346177192251E-02 -0.367970378445E-02 -0.391121764595E-02
 -0.415714058778E-02 -0.441834790930E-02 -0.469576571847E-02 -0.499037363831E-02 -0.530320763277E-02
 -0.563536295472E-02 -0.598799721819E-02 -0.636233359722E-02 -0.675966415272E-02 -0.718135328875E-02
 -0.762884133899E-02 -0.810364828336E-02 -0.860737759453E-02 -0.914172021298E-02 -0.970845864845E-02
 -0.103094712048E-01 -0.109467363244E-01 -0.116223370458E-01 -0.123384655699E-01 -0.130974279239E-01
 -0.139016487162E-01 -0.147536759678E-01 -0.156561860089E-01 -0.166119884239E-01 -0.176240310270E-01
 -0.186954048470E-01 -0.198293490991E-01 -0.210292561159E-01 -0.222986762080E-01 -0.236413224205E-01
 -0.250610751485E-01 -0.265619865689E-01 -0.281482848433E-01 -0.298243780405E-01 -0.315948577224E-01
 -0.334645021326E-01 -0.354382789186E-01 -0.375213473166E-01 -0.397190597159E-01 -0.420369625191E-01
 -0.444807962021E-01 -0.470564944732E-01 -0.497701824228E-01 -0.526281735460E-01 -0.556369655128E-01
 -0.588032345533E-01 -0.621338283139E-01 -0.656357570361E-01 -0.693161828958E-01 -0.731824073383E-01
 -0.772418562295E-01 -0.815020626413E-01 -0.859706470787E-01 -0.906552949492E-01 -0.955637310688E-01
 -0.100703690995E+00 -0.106082888973E+00 -0.111708982270E+00 -0.117589531692E+00 -0.123731958049E+00
 -0.130143494363E+00 -0.136831133610E+00 -0.143801571779E+00 -0.151061146076E+00 -0.158615768081E+00
 -0.166470851708E+00 -0.174631235828E+00 -0.183101101450E+00 -0.191883883379E+00 -0.200982176319E+00
 -0.210397635411E+00 -0.220130871278E+00 -0.230181339660E+00 -0.240547225827E+00 -0.251225323998E+00
 -0.262210912083E+00 -0.273497622153E+00 -0.285077307138E+00 -0.296939904380E+00 -0.309073296770E+00
 -0.321463172386E+00 -0.334092883695E+00 -0.346943307575E+00 -0.359992707639E+00 -0.373216600541E+00
 -0.386587628097E+00 -0.400075437201E+00 -0.413646569380E+00 -0.427264361552E+00 -0.440888858807E+00
 -0.454476738955E+00 -0.467981247170E+00 -0.481352137618E+00 -0.494535618218E+00 -0.507474295244E+00
 -0.520107117059E+00 -0.532369320923E+00 -0.544192392682E+00 -0.555504055045E+00 -0.566228303659E+00
 -0.576285510390E+00 -0.585592608033E+00 -0.594063361195E+00 -0.601608716575E+00 -0.608137217127E+00
 -0.613555462773E+00 -0.617768604750E+00 -0.620680868907E+00 -0.622196109036E+00 -0.622218393837E+00
 -0.620652631078E+00 -0.617405229073E+00 -0.612384793930E+00 -0.605502858885E+00 -0.596674641379E+00
 -0.585819823052E+00 -0.572863348499E+00 -0.557736238173E+00 -0.540376411839E+00 -0.520729517917E+00
 -0.498749764766E+00 -0.474400748930E+00 -0.447656274944E+00 -0.418501160353E+00 -0.386932018723E+00
 -0.352958011875E+00 -0.316601561409E+00 -0.277899007760E+00 -0.236901203625E+00 -0.193674027211E+00
 -0.148298799644E+00 -0.100872591155E+00 -0.515084012998E-01 -0.335201580525E-03  0.525021670409E-01
  0.106843243418E+00  0.162512338239E+00  0.219319061495E+00  0.277058981478E+00  0.335514426735E+00
  0.394455476158E+00  0.453641238956E+00  0.512821602991E+00  0.571739696407E+00  0.630135267524E+00
  0.687748822403E+00  0.744325411159E+00  0.799615588485E+00  0.853370697224E+00  0.905332496000E+00
  0.955223028914E+00  0.100274362314E+01  0.104758579533E+01  0.108944675963E+01  0.112804055735E+01
  0.116310261364E+01  0.119439061041E+01  0.122168461727E+01  0.124478774484E+01  0.126352746157E+01
  0.127775728987E+01  0.128735851119E+01  0.129224155651E+01  0.129234686539E+01  0.128764510028E+01
  0.127813670265E+01  0.126385082961E+01  0.124484374870E+01  0.122119677583E+01  0.119301384296E+01
  0.116041877546E+01  0.112355235075E+01  0.108256919696E+01  0.103763458079E+01  0.988921119676E+00
  0.936605439382E+00  0.880864780210E+00  0.821873549404E+00  0.000000000000E+00  0.000000000000E+00
  0.000000000000E+00  0.000000000000E+00  0.000000000000E+00  0.000000000000E+00  0.000000000000E+00
  0.000000000000E+00  0.000000000000E+00  0.000000000000E+00  0.000000000000E+00  0.000000000000E+00
  0.000000000000E+00  0.000000000000E+00  0.000000000000E+00  0.000000000000E+00  0.000000000000E+00
  0.000000000000E+00  0.000000000000E+00  0.000000000000E+00  0.000000000000E+00  0.000000000000E+00
  0.000000000000E+00  0.000000000000E+00  0.000000000000E+00  0.000000000000E+00  0.000000000000E+00
  0.000000000000E+00  0.000000000000E+00  0.000000000000E+00  0.000000000000E+00  0.000000000000E+00
  0.000000000000E+00  0.000000000000E+00  0.000000000000E+00  0.000000000000E+00  0.000000000000E+00
  0.000000000000E+00  0.000000000000E+00  0.000000000000E+00  0.000000000000E+00  0.000000000000E+00
  0.000000000000E+00  0.000000000000E+00  0.000000000000E+00  0.000000000000E+00  0.000000000000E+00
  0.000000000000E+00
 End of Dataset
