Ga114 As54 P60
1.0
  12.1979782679025046    0.0000000000000000    0.0000000000000007
   0.0000000000000020   12.1979782679025046    0.0000000000000007
   0.0000000000000000    0.0000000000000000   55.8049694975000108
Ga As P
114 54 60
Selective dynamics
direct
   0.0000000000000003    0.0000000000000001    0.2431767491440846 F F F Ga3+
   0.0000000000000003    0.3333333333333334    0.2431767491440846 F F F Ga3+
   0.0000000000000002    0.6666666666666666    0.2431767491440846 F F F Ga3+
   0.3333333333333336    0.0000000000000001    0.2431767491440846 F F F Ga3+
   0.3333333333333335    0.3333333333333334    0.2431767491440846 F F F Ga3+
   0.3333333333333336    0.6666666666666669    0.2431767491440846 F F F Ga3+
   0.6666666666666669    0.0000000000000001    0.2431767491440846 F F F Ga3+
   0.6666666666666670    0.3333333333333335    0.2431767491440846 F F F Ga3+
   0.6666666666666669    0.6666666666666666    0.2431767491440845 F F F Ga3+
   0.1666666666666670    0.1666666666666668    0.1916564082875449 F F F Ga3+
   0.1666666666666670    0.5000000000000001    0.1916564082875448 F F F Ga3+
   0.1666666666666671    0.8333333333333334    0.1916564082875448 F F F Ga3+
   0.5000000000000002    0.1666666666666668    0.1916564082875448 F F F Ga3+
   0.5000000000000003    0.5000000000000001    0.1916564082875448 F F F Ga3+
   0.5000000000000004    0.8333333333333335    0.1916564082875448 F F F Ga3+
   0.8333333333333338    0.1666666666666669    0.1916564082875448 F F F Ga3+
   0.8333333333333337    0.5000000000000002    0.1916564082875448 F F F Ga3+
   0.8333333333333336    0.8333333333333334    0.1916564082875449 F F F Ga3+
   0.0000000000000002    0.3333333333333334    0.3462174308571639 T T T Ga3+
   0.0000000000000002    0.6666666666666666    0.3462174308571639 T T T Ga3+
   0.0000000000000002    0.0000000000000001    0.3462174308571639 T T T Ga3+
   0.3333333333333334    0.3333333333333334    0.3462174308571639 T T T Ga3+
   0.3333333333333334    0.6666666666666667    0.3462174308571639 T T T Ga3+
   0.3333333333333335    0.0000000000000001    0.3462174308571639 T T T Ga3+
   0.6666666666666667    0.3333333333333335    0.3462174308571639 T T T Ga3+
   0.6666666666666669    0.6666666666666669    0.3462174308571639 T T T Ga3+
   0.6666666666666667    0.0000000000000001    0.3462174308571639 T T T Ga3+
   0.1666666666666669    0.1666666666666668    0.2946970900006242 F F F Ga3+
   0.1666666666666669    0.5000000000000001    0.2946970900006242 F F F Ga3+
   0.1666666666666669    0.8333333333333335    0.2946970900006242 F F F Ga3+
   0.5000000000000001    0.1666666666666668    0.2946970900006242 F F F Ga3+
   0.5000000000000003    0.5000000000000001    0.2946970900006242 F F F Ga3+
   0.5000000000000002    0.8333333333333335    0.2946970900006242 F F F Ga3+
   0.8333333333333335    0.1666666666666669    0.2946970900006242 F F F Ga3+
   0.8333333333333336    0.5000000000000001    0.2946970900006242 F F F Ga3+
   0.8333333333333335    0.8333333333333335    0.2946970900006242 F F F Ga3+
   0.0000000000000001    0.0000000000000001    0.4492581125702432 T T T Ga3+
   0.0000000000000001    0.3333333333333333    0.4492581125702432 T T T Ga3+
   0.0000000000000001    0.6666666666666665    0.4492581125702431 T T T Ga3+
   0.3333333333333334    0.0000000000000001    0.4492581125702432 T T T Ga3+
   0.3333333333333334    0.3333333333333333    0.4492581125702431 T T T Ga3+
   0.3333333333333335    0.6666666666666667    0.4492581125702432 T T T Ga3+
   0.6666666666666667    0.0000000000000000    0.4492581125702431 T T T Ga3+
   0.6666666666666667    0.3333333333333334    0.4492581125702432 T T T Ga3+
   0.6666666666666667    0.6666666666666667    0.4492581125702432 T T T Ga3+
   0.1666666666666669    0.1666666666666667    0.3977377717137034 T T T Ga3+
   0.1666666666666668    0.5000000000000000    0.3977377717137034 T T T Ga3+
   0.1666666666666669    0.8333333333333334    0.3977377717137035 T T T Ga3+
   0.5000000000000001    0.1666666666666667    0.3977377717137034 T T T Ga3+
   0.5000000000000002    0.5000000000000000    0.3977377717137035 T T T Ga3+
   0.5000000000000002    0.8333333333333335    0.3977377717137035 T T T Ga3+
   0.8333333333333335    0.1666666666666668    0.3977377717137035 T T T Ga3+
   0.8333333333333336    0.5000000000000001    0.3977377717137035 T T T Ga3+
   0.8333333333333334    0.8333333333333334    0.3977377717137035 T T T Ga3+
   0.3000000000000002    0.0250000000000001    0.5637410842487102 T T T Ga3+
   0.4000000000000002    0.3250000000000002    0.5637410842487102 T T T Ga3+
   0.7000000000000003    0.2250000000000002    0.5637410842487102 T T T Ga3+
   0.0000000000000002    0.1250000000000002    0.5637410842487102 T T T Ga3+
   0.5000000000000002    0.6250000000000001    0.5637410842487102 T T T Ga3+
   0.8000000000000004    0.5250000000000001    0.5637410842487102 T T T Ga3+
   0.1000000000000001    0.4250000000000001    0.5637410842487102 T T T Ga3+
   0.6000000000000003    0.9249999999999999    0.5637410842487102 T T T Ga3+
   0.9000000000000004    0.8250000000000000    0.5637410842487102 T T T Ga3+
   0.2000000000000005    0.7250000000000002    0.5637410842487102 T T T Ga3+
   0.2000000000000003    0.2250000000000002    0.5148957480798209 T T T Ga3+
   0.3000000000000003    0.5250000000000001    0.5148957480798209 T T T Ga3+
   0.6000000000000002    0.4250000000000001    0.5148957480798209 T T T Ga3+
   0.9000000000000004    0.3250000000000002    0.5148957480798209 T T T Ga3+
   0.4000000000000002    0.8250000000000002    0.5148957480798209 T T T Ga3+
   0.7000000000000002    0.7250000000000002    0.5148957480798209 T T T Ga3+
   0.0000000000000002    0.6250000000000001    0.5148957480798209 T T T Ga3+
   0.5000000000000003    0.1250000000000000    0.5148957480798209 T T T Ga3+
   0.8000000000000002    0.0249999999999999    0.5148957480798209 T T T Ga3+
   0.1000000000000003    0.9250000000000002    0.5148957480798209 T T T Ga3+
   0.3000000000000001    0.0250000000000001    0.6614317565864885 F F F Ga3+
   0.4000000000000002    0.3250000000000001    0.6614317565864885 F F F Ga3+
   0.7000000000000001    0.2250000000000000    0.6614317565864887 F F F Ga3+
   0.0000000000000001    0.1250000000000001    0.6614317565864885 F F F Ga3+
   0.5000000000000002    0.6250000000000000    0.6614317565864887 F F F Ga3+
   0.8000000000000004    0.5250000000000000    0.6614317565864886 F F F Ga3+
   0.1000000000000000    0.4250000000000000    0.6614317565864885 F F F Ga3+
   0.6000000000000003    0.9249999999999998    0.6614317565864886 F F F Ga3+
   0.9000000000000004    0.8250000000000000    0.6614317565864886 F F F Ga3+
   0.2000000000000004    0.7250000000000002    0.6614317565864885 F F F Ga3+
   0.2000000000000002    0.2250000000000001    0.6125864204175994 T T T Ga3+
   0.3000000000000003    0.5250000000000000    0.6125864204175994 T T T Ga3+
   0.6000000000000000    0.4250000000000000    0.6125864204175994 T T T Ga3+
   0.9000000000000004    0.3250000000000001    0.6125864204175994 T T T Ga3+
   0.4000000000000004    0.8250000000000000    0.6125864204175994 T T T Ga3+
   0.7000000000000004    0.7250000000000000    0.6125864204175994 T T T Ga3+
  -0.0000000000000000    0.6250000000000000    0.6125864204175995 T T T Ga3+
   0.5000000000000003    0.1250000000000000    0.6125864204175994 T T T Ga3+
   0.8000000000000000    0.0249999999999999    0.6125864204175995 T T T Ga3+
   0.1000000000000003    0.9249999999999999    0.6125864204175994 T T T Ga3+
   0.3000000000000002    0.0249999999999999    0.7591224289242672 F F F Ga3+
   0.4000000000000002    0.3250000000000001    0.7591224289242672 F F F Ga3+
   0.7000000000000001    0.2250000000000000    0.7591224289242673 F F F Ga3+
   0.0000000000000001    0.1250000000000001    0.7591224289242672 F F F Ga3+
   0.5000000000000002    0.6250000000000000    0.7591224289242673 F F F Ga3+
   0.8000000000000003    0.5250000000000000    0.7591224289242672 F F F Ga3+
   0.1000000000000000    0.4250000000000000    0.7591224289242672 F F F Ga3+
   0.6000000000000002    0.9249999999999998    0.7591224289242672 F F F Ga3+
   0.9000000000000004    0.8249999999999998    0.7591224289242672 F F F Ga3+
   0.2000000000000003    0.7250000000000002    0.7591224289242672 F F F Ga3+
   0.2000000000000001    0.2250000000000001    0.7102770927553779 F F F Ga3+
   0.3000000000000001    0.5250000000000000    0.7102770927553779 F F F Ga3+
   0.6000000000000002    0.4250000000000001    0.7102770927553780 F F F Ga3+
   0.9000000000000001    0.3250000000000002    0.7102770927553780 F F F Ga3+
   0.4000000000000002    0.8250000000000000    0.7102770927553780 F F F Ga3+
   0.7000000000000001    0.7250000000000002    0.7102770927553780 F F F Ga3+
  -0.0000000000000000    0.6250000000000000    0.7102770927553779 F F F Ga3+
   0.5000000000000002    0.1249999999999996    0.7102770927553780 F F F Ga3+
   0.8000000000000000    0.0249999999999999    0.7102770927553779 F F F Ga3+
   0.1000000000000003    0.9249999999999999    0.7102770927553779 F F F Ga3+
   0.1666666666666670    0.0000000000000002    0.1658962378592750 F F F As3-
   0.1666666666666670    0.3333333333333335    0.1658962378592750 F F F As3-
   0.1666666666666670    0.6666666666666669    0.1658962378592750 F F F As3-
   0.5000000000000002    0.0000000000000002    0.1658962378592750 F F F As3-
   0.5000000000000003    0.3333333333333335    0.1658962378592750 F F F As3-
   0.5000000000000003    0.6666666666666669    0.1658962378592750 F F F As3-
   0.8333333333333337    0.0000000000000002    0.1658962378592750 F F F As3-
   0.8333333333333337    0.3333333333333335    0.1658962378592750 F F F As3-
   0.8333333333333336    0.6666666666666669    0.1658962378592751 F F F As3-
   0.0000000000000003    0.1666666666666668    0.2174165787158147 F F F As3-
   0.0000000000000004    0.5000000000000001    0.2174165787158147 F F F As3-
   0.0000000000000004    0.8333333333333334    0.2174165787158147 F F F As3-
   0.3333333333333336    0.1666666666666668    0.2174165787158147 F F F As3-
   0.3333333333333336    0.5000000000000001    0.2174165787158147 F F F As3-
   0.3333333333333335    0.8333333333333335    0.2174165787158147 F F F As3-
   0.6666666666666669    0.1666666666666668    0.2174165787158147 F F F As3-
   0.6666666666666669    0.5000000000000001    0.2174165787158147 F F F As3-
   0.6666666666666669    0.8333333333333334    0.2174165787158147 F F F As3-
   0.1666666666666669    0.0000000000000001    0.2689369195723544 F F F As3-
   0.1666666666666669    0.3333333333333334    0.2689369195723543 F F F As3-
   0.1666666666666669    0.6666666666666669    0.2689369195723543 F F F As3-
   0.5000000000000002    0.0000000000000001    0.2689369195723543 F F F As3-
   0.5000000000000002    0.3333333333333335    0.2689369195723543 F F F As3-
   0.5000000000000003    0.6666666666666669    0.2689369195723543 F F F As3-
   0.8333333333333336    0.0000000000000001    0.2689369195723543 F F F As3-
   0.8333333333333336    0.3333333333333335    0.2689369195723543 F F F As3-
   0.8333333333333336    0.6666666666666669    0.2689369195723544 F F F As3-
   0.0000000000000003    0.1666666666666668    0.3204572604288940 T T T As3-
   0.0000000000000003    0.5000000000000001    0.3204572604288940 T T T As3-
   0.0000000000000002    0.8333333333333334    0.3204572604288940 T T T As3-
   0.3333333333333336    0.1666666666666667    0.3204572604288940 T T T As3-
   0.3333333333333335    0.5000000000000000    0.3204572604288940 T T T As3-
   0.3333333333333337    0.8333333333333335    0.3204572604288940 T T T As3-
   0.6666666666666667    0.1666666666666667    0.3204572604288940 T T T As3-
   0.6666666666666670    0.5000000000000002    0.3204572604288940 T T T As3-
   0.6666666666666669    0.8333333333333334    0.3204572604288940 T T T As3-
   0.1666666666666669    0.0000000000000001    0.3719776012854337 T T T As3-
   0.1666666666666668    0.3333333333333334    0.3719776012854337 T T T As3-
   0.1666666666666670    0.6666666666666667    0.3719776012854337 T T T As3-
   0.5000000000000001    0.0000000000000002    0.3719776012854337 T T T As3-
   0.5000000000000002    0.3333333333333334    0.3719776012854337 T T T As3-
   0.5000000000000002    0.6666666666666667    0.3719776012854337 T T T As3-
   0.8333333333333336    0.0000000000000001    0.3719776012854337 T T T As3-
   0.8333333333333335    0.3333333333333335    0.3719776012854337 T T T As3-
   0.8333333333333336    0.6666666666666666    0.3719776012854337 T T T As3-
   0.0000000000000001    0.1666666666666667    0.4234979421419733 T T T As3-
   0.0000000000000002    0.5000000000000001    0.4234979421419733 T T T As3-
   0.0000000000000002    0.8333333333333333    0.4234979421419734 T T T As3-
   0.3333333333333334    0.1666666666666668    0.4234979421419733 T T T As3-
   0.3333333333333334    0.5000000000000000    0.4234979421419734 T T T As3-
   0.3333333333333334    0.8333333333333334    0.4234979421419733 T T T As3-
   0.6666666666666667    0.1666666666666667    0.4234979421419734 T T T As3-
   0.6666666666666667    0.5000000000000000    0.4234979421419733 T T T As3-
   0.6666666666666667    0.8333333333333333    0.4234979421419733 T T T As3-
   0.3500000000000002    0.1750000000000003    0.4904730799953762 T T T P3-
   0.4500000000000004    0.4750000000000002    0.4904730799953762 T T T P3-
   0.7500000000000000    0.3750000000000002    0.4904730799953762 T T T P3-
   0.0500000000000005    0.2750000000000004    0.4904730799953763 T T T P3-
   0.5500000000000003    0.7750000000000000    0.4904730799953761 T T T P3-
   0.8500000000000005    0.6750000000000003    0.4904730799953763 T T T P3-
   0.1500000000000000    0.5750000000000002    0.4904730799953763 T T T P3-
   0.6500000000000005    0.0750000000000000    0.4904730799953763 T T T P3-
   0.9500000000000003    0.9750000000000001    0.4904730799953763 T T T P3-
   0.2500000000000004    0.8750000000000001    0.4904730799953762 T T T P3-
   0.2500000000000002    0.3750000000000002    0.5393184161642656 T T T P3-
   0.3500000000000004    0.6750000000000000    0.5393184161642655 T T T P3-
   0.6500000000000001    0.5750000000000002    0.5393184161642655 T T T P3-
   0.9500000000000004    0.4750000000000002    0.5393184161642655 T T T P3-
   0.4500000000000003    0.9750000000000001    0.5393184161642655 T T T P3-
   0.7500000000000006    0.8750000000000001    0.5393184161642655 T T T P3-
   0.0500000000000001    0.7750000000000000    0.5393184161642656 T T T P3-
   0.5500000000000006    0.2750000000000001    0.5393184161642656 T T T P3-
   0.8500000000000002    0.1750000000000000    0.5393184161642655 T T T P3-
   0.1500000000000004    0.0750000000000002    0.5393184161642656 T T T P3-
   0.0500000000000002    0.2750000000000002    0.5881637523331547 T T T P3-
   0.1500000000000003    0.5750000000000002    0.5881637523331545 T T T P3-
   0.4500000000000002    0.4750000000000001    0.5881637523331545 T T T P3-
   0.7500000000000001    0.3750000000000002    0.5881637523331545 T T T P3-
   0.2500000000000002    0.8750000000000001    0.5881637523331545 T T T P3-
   0.5500000000000003    0.7750000000000000    0.5881637523331545 T T T P3-
   0.8500000000000001    0.6750000000000000    0.5881637523331549 T T T P3-
   0.3500000000000002    0.1750000000000000    0.5881637523331545 T T T P3-
   0.6500000000000002    0.0750000000000000    0.5881637523331549 T T T P3-
   0.9500000000000003    0.9750000000000001    0.5881637523331547 T T T P3-
   0.2500000000000002    0.3750000000000001    0.6370090885020440 F F F P3-
   0.3500000000000004    0.6750000000000000    0.6370090885020441 F F F P3-
   0.6500000000000000    0.5750000000000000    0.6370090885020441 F F F P3-
   0.9500000000000004    0.4750000000000001    0.6370090885020440 F F F P3-
   0.4500000000000003    0.9750000000000001    0.6370090885020441 F F F P3-
   0.7500000000000004    0.8749999999999999    0.6370090885020440 F F F P3-
   0.0500000000000000    0.7749999999999999    0.6370090885020440 F F F P3-
   0.5500000000000006    0.2750000000000001    0.6370090885020440 F F F P3-
   0.8500000000000002    0.1750000000000000    0.6370090885020440 F F F P3-
   0.1500000000000004    0.0750000000000002    0.6370090885020441 F F F P3-
   0.3500000000000001    0.1750000000000002    0.6858544246709333 F F F P3-
   0.4500000000000004    0.4750000000000001    0.6858544246709333 F F F P3-
   0.7499999999999999    0.3750000000000001    0.6858544246709333 F F F P3-
   0.0500000000000004    0.2750000000000002    0.6858544246709333 F F F P3-
   0.5500000000000002    0.7749999999999999    0.6858544246709333 F F F P3-
   0.8500000000000004    0.6750000000000000    0.6858544246709333 F F F P3-
   0.1500000000000000    0.5750000000000001    0.6858544246709333 F F F P3-
   0.6500000000000005    0.0749999999999997    0.6858544246709333 F F F P3-
   0.9500000000000001    0.9749999999999999    0.6858544246709333 F F F P3-
   0.2500000000000002    0.8750000000000001    0.6858544246709333 F F F P3-
   0.1500000000000002    0.0750000000000000    0.7346997608398226 F F F P3-
   0.2500000000000001    0.3750000000000001    0.7346997608398226 F F F P3-
   0.5500000000000002    0.2750000000000001    0.7346997608398226 F F F P3-
   0.8500000000000002    0.1750000000000001    0.7346997608398225 F F F P3-
   0.3500000000000000    0.6749999999999999    0.7346997608398225 F F F P3-
   0.6500000000000001    0.5750000000000000    0.7346997608398225 F F F P3-
   0.9500000000000000    0.4750000000000001    0.7346997608398225 F F F P3-
   0.4500000000000002    0.9749999999999999    0.7346997608398225 F F F P3-
   0.7500000000000003    0.8749999999999999    0.7346997608398225 F F F P3-
   0.0500000000000001    0.7750000000000000    0.7346997608398226 F F F P3-
