K30 Na48 I30 Cl48
1.0
  11.1762528799999998    0.0000000000000000    0.0000000000000007
   0.0000000000000018   11.1762528799999998    0.0000000000000007
   0.0000000000000000    0.0000000000000000   56.6824941749999951
K Na I Cl
30 48 30 48
Selective dynamics
direct
   0.3500000000000005    0.5499999999999998    0.6078239320540084 T T T K+
   0.7500000000000006    0.7500000000000000    0.6078239320540084 T T T K+
   0.1500000000000004    0.9499999999999997    0.6078239320540084 T T T K+
   0.5500000000000003    0.1499999999999997    0.6078239320540084 T T T K+
   0.9500000000000003    0.3499999999999996    0.6078239320540084 T T T K+
   0.2500000000000004    0.2499999999999998    0.5453278181027912 T T T K+
   0.6500000000000006    0.4500000000000000    0.5453278181027912 T T T K+
   0.0500000000000003    0.6499999999999997    0.5453278181027912 T T T K+
   0.4500000000000006    0.8499999999999996    0.5453278181027912 T T T K+
   0.8500000000000004    0.0499999999999998    0.5453278181027912 T T T K+
   0.3500000000000003    0.5499999999999998    0.7328161599564424 F F F K+
   0.7500000000000006    0.7500000000000000    0.7328161599564424 F F F K+
   0.1500000000000004    0.9499999999999998    0.7328161599564424 F F F K+
   0.5500000000000003    0.1499999999999999    0.7328161599564424 F F F K+
   0.9500000000000001    0.3500000000000001    0.7328161599564427 F F F K+
   0.2500000000000004    0.2500000000000000    0.6703200460052254 T T T K+
   0.6500000000000004    0.4499999999999997    0.6703200460052254 T T T K+
   0.0500000000000003    0.6499999999999999    0.6703200460052254 T T T K+
   0.4500000000000005    0.8499999999999998    0.6703200460052254 T T T K+
   0.8500000000000003    0.0499999999999998    0.6703200460052254 T T T K+
   0.3500000000000001    0.5499999999999998    0.8578083878588769 F F F K+
   0.7500000000000002    0.7500000000000002    0.8578083878588769 F F F K+
   0.1500000000000001    0.9499999999999998    0.8578083878588769 F F F K+
   0.5500000000000003    0.1499999999999999    0.8578083878588769 F F F K+
   0.9500000000000000    0.3500000000000001    0.8578083878588769 F F F K+
   0.2500000000000002    0.2500000000000000    0.7953122739076597 F F F K+
   0.6500000000000004    0.4500000000000000    0.7953122739076597 F F F K+
   0.0500000000000003    0.6499999999999999    0.7953122739076597 F F F K+
   0.4500000000000002    0.8500000000000000    0.7953122739076597 F F F K+
   0.8500000000000003    0.0499999999999998    0.7953122739076597 F F F K+
   0.2500000000000003    0.2499999999999999    0.4325229157592362 T T T Na+
   0.5000000000000003    0.4999999999999998    0.4325229157592362 T T T Na+
   0.2500000000000003    0.7499999999999999    0.4325229157592362 T T T Na+
   0.5000000000000003   -0.0000000000000001    0.4325229157592362 T T T Na+
   0.7500000000000003    0.2499999999999999    0.4325229157592362 T T T Na+
   0.0000000000000003    0.4999999999999998    0.4325229157592362 T T T Na+
   0.7500000000000003    0.7499999999999999    0.4325229157592362 T T T Na+
   0.0000000000000003   -0.0000000000000001    0.4325229157592362 T T T Na+
   0.2500000000000003    0.4999999999999998    0.4818161457179194 T T T Na+
   0.5000000000000003    0.7499999999999999    0.4818161457179194 T T T Na+
   0.2500000000000003   -0.0000000000000001    0.4818161457179194 T T T Na+
   0.5000000000000003    0.2499999999999999    0.4818161457179194 T T T Na+
   0.7500000000000003    0.4999999999999998    0.4818161457179194 T T T Na+
   0.0000000000000003    0.7499999999999999    0.4818161457179194 T T T Na+
   0.7500000000000003   -0.0000000000000001    0.4818161457179194 T T T Na+
   0.0000000000000003    0.2499999999999999    0.4818161457179194 T T T Na+
   0.2500000000000002    0.7499999999999999    0.3339364558418697 F F F Na+
   0.5000000000000002   -0.0000000000000001    0.3339364558418697 F F F Na+
   0.2500000000000002    0.2499999999999999    0.3339364558418697 F F F Na+
   0.5000000000000002    0.4999999999999999    0.3339364558418697 F F F Na+
   0.7500000000000002    0.7499999999999999    0.3339364558418697 F F F Na+
   0.0000000000000002   -0.0000000000000001    0.3339364558418697 F F F Na+
   0.7500000000000002    0.2499999999999999    0.3339364558418697 F F F Na+
   0.0000000000000002    0.4999999999999999    0.3339364558418697 F F F Na+
   0.2500000000000003    0.4999999999999999    0.3832296858005529 T T T Na+
   0.5000000000000002    0.7499999999999999    0.3832296858005529 T T T Na+
   0.2500000000000003   -0.0000000000000001    0.3832296858005529 T T T Na+
   0.5000000000000002    0.2499999999999999    0.3832296858005529 T T T Na+
   0.7500000000000003    0.4999999999999999    0.3832296858005529 T T T Na+
   0.0000000000000003    0.7499999999999999    0.3832296858005529 T T T Na+
   0.7500000000000003   -0.0000000000000001    0.3832296858005529 T T T Na+
   0.0000000000000003    0.2499999999999999    0.3832296858005529 T T T Na+
   0.2500000000000002    0.7500000000000002    0.2353499959245031 F F F Na+
   0.5000000000000001   -0.0000000000000001    0.2353499959245031 F F F Na+
   0.2500000000000002    0.2500000000000000    0.2353499959245031 F F F Na+
   0.5000000000000001    0.5000000000000000    0.2353499959245031 F F F Na+
   0.7500000000000001    0.7500000000000002    0.2353499959245031 F F F Na+
   0.0000000000000001   -0.0000000000000001    0.2353499959245031 F F F Na+
   0.7500000000000001    0.2500000000000000    0.2353499959245031 F F F Na+
   0.0000000000000001    0.5000000000000000    0.2353499959245031 F F F Na+
   0.2500000000000002    0.4999999999999999    0.2846432258831864 F F F Na+
   0.5000000000000002    0.7500000000000002    0.2846432258831864 F F F Na+
   0.2500000000000002   -0.0000000000000001    0.2846432258831864 F F F Na+
   0.5000000000000002    0.2499999999999999    0.2846432258831864 F F F Na+
   0.7500000000000002    0.4999999999999999    0.2846432258831863 F F F Na+
   0.0000000000000002    0.7500000000000002    0.2846432258831863 F F F Na+
   0.7500000000000002   -0.0000000000000001    0.2846432258831863 F F F Na+
   0.0000000000000002    0.2499999999999999    0.2846432258831863 F F F Na+
   0.1500000000000004    0.9499999999999998    0.5453278181027912 T T T I-
   0.5500000000000005    0.1499999999999997    0.5453278181027912 T T T I-
   0.9500000000000003    0.3499999999999996    0.5453278181027912 T T T I-
   0.3500000000000005    0.5499999999999998    0.5453278181027912 T T T I-
   0.7500000000000003    0.7499999999999997    0.5453278181027912 T T T I-
   0.2500000000000004    0.2499999999999998    0.6078239320540084 T T T I-
   0.6500000000000006    0.4499999999999997    0.6078239320540084 T T T I-
   0.0500000000000003    0.6499999999999999    0.6078239320540084 T T T I-
   0.4500000000000006    0.8499999999999996    0.6078239320540084 T T T I-
   0.8500000000000004    0.0499999999999998    0.6078239320540084 T T T I-
   0.1500000000000004    0.9499999999999998    0.6703200460052254 T T T I-
   0.5500000000000003    0.1499999999999999    0.6703200460052254 T T T I-
   0.9500000000000001    0.3499999999999996    0.6703200460052254 T T T I-
   0.3500000000000005    0.5499999999999998    0.6703200460052254 T T T I-
   0.7500000000000002    0.7499999999999999    0.6703200460052254 T T T I-
   0.2500000000000002    0.2500000000000000    0.7328161599564424 F F F I-
   0.6500000000000004    0.4499999999999997    0.7328161599564424 F F F I-
   0.0500000000000003    0.6499999999999999    0.7328161599564424 F F F I-
   0.4500000000000005    0.8499999999999998    0.7328161599564424 F F F I-
   0.8500000000000003    0.0499999999999998    0.7328161599564427 F F F I-
   0.1500000000000001    0.9500000000000001    0.7953122739076597 F F F I-
   0.5500000000000007    0.1499999999999999    0.7953122739076597 F F F I-
   0.9500000000000001    0.3499999999999999    0.7953122739076597 F F F I-
   0.3500000000000003    0.5499999999999998    0.7953122739076597 F F F I-
   0.7500000000000002    0.7499999999999999    0.7953122739076597 F F F I-
   0.2500000000000000    0.2500000000000000    0.8578083878588769 F F F I-
   0.6500000000000004    0.4500000000000002    0.8578083878588769 F F F I-
   0.0500000000000003    0.6499999999999999    0.8578083878588769 F F F I-
   0.4500000000000002    0.8500000000000000    0.8578083878588769 F F F I-
   0.8500000000000003    0.0499999999999998    0.8578083878588769 F F F I-
   0.2500000000000003    0.2499999999999999    0.4818161457179194 T T T Cl-
   0.5000000000000003    0.4999999999999998    0.4818161457179194 T T T Cl-
   0.2500000000000003    0.7499999999999999    0.4818161457179194 T T T Cl-
   0.5000000000000003   -0.0000000000000001    0.4818161457179194 T T T Cl-
   0.7500000000000003    0.2499999999999999    0.4818161457179194 T T T Cl-
   0.0000000000000003    0.4999999999999998    0.4818161457179194 T T T Cl-
   0.7500000000000003    0.7499999999999999    0.4818161457179194 T T T Cl-
   0.0000000000000003   -0.0000000000000001    0.4818161457179194 T T T Cl-
   0.2500000000000003    0.4999999999999999    0.4325229157592362 T T T Cl-
   0.5000000000000003    0.7499999999999999    0.4325229157592362 T T T Cl-
   0.2500000000000003   -0.0000000000000001    0.4325229157592362 T T T Cl-
   0.5000000000000003    0.2499999999999999    0.4325229157592362 T T T Cl-
   0.7500000000000003    0.4999999999999999    0.4325229157592362 T T T Cl-
   0.0000000000000003    0.7499999999999999    0.4325229157592362 T T T Cl-
   0.7500000000000003   -0.0000000000000001    0.4325229157592362 T T T Cl-
   0.0000000000000003    0.2499999999999999    0.4325229157592362 T T T Cl-
   0.2500000000000003    0.7499999999999999    0.3832296858005529 T T T Cl-
   0.5000000000000002   -0.0000000000000001    0.3832296858005529 T T T Cl-
   0.2500000000000003    0.2499999999999999    0.3832296858005529 T T T Cl-
   0.5000000000000002    0.4999999999999998    0.3832296858005529 T T T Cl-
   0.7500000000000003    0.7499999999999999    0.3832296858005529 T T T Cl-
   0.0000000000000003   -0.0000000000000001    0.3832296858005529 T T T Cl-
   0.7500000000000003    0.2499999999999999    0.3832296858005529 T T T Cl-
   0.0000000000000003    0.4999999999999998    0.3832296858005529 T T T Cl-
   0.2500000000000002    0.4999999999999999    0.3339364558418697 F F F Cl-
   0.5000000000000002    0.7499999999999999    0.3339364558418697 F F F Cl-
   0.2500000000000002   -0.0000000000000001    0.3339364558418697 F F F Cl-
   0.5000000000000002    0.2499999999999999    0.3339364558418697 F F F Cl-
   0.7500000000000002    0.4999999999999999    0.3339364558418697 F F F Cl-
   0.0000000000000002    0.7499999999999999    0.3339364558418697 F F F Cl-
   0.7500000000000002   -0.0000000000000001    0.3339364558418697 F F F Cl-
   0.0000000000000002    0.2499999999999999    0.3339364558418697 F F F Cl-
   0.2500000000000002    0.2499999999999999    0.2846432258831864 F F F Cl-
   0.5000000000000002    0.4999999999999999    0.2846432258831864 F F F Cl-
   0.2500000000000002    0.7500000000000000    0.2846432258831864 F F F Cl-
   0.5000000000000002   -0.0000000000000001    0.2846432258831864 F F F Cl-
   0.7500000000000002    0.2499999999999999    0.2846432258831863 F F F Cl-
   0.0000000000000002    0.4999999999999999    0.2846432258831863 F F F Cl-
   0.7500000000000002    0.7500000000000000    0.2846432258831863 F F F Cl-
   0.0000000000000002   -0.0000000000000001    0.2846432258831863 F F F Cl-
   0.2500000000000002    0.4999999999999999    0.2353499959245031 F F F Cl-
   0.5000000000000001    0.7500000000000002    0.2353499959245031 F F F Cl-
   0.2500000000000002   -0.0000000000000001    0.2353499959245031 F F F Cl-
   0.5000000000000001    0.2500000000000000    0.2353499959245031 F F F Cl-
   0.7500000000000001    0.4999999999999999    0.2353499959245031 F F F Cl-
   0.0000000000000001    0.7500000000000002    0.2353499959245031 F F F Cl-
   0.7500000000000001   -0.0000000000000001    0.2353499959245031 F F F Cl-
   0.0000000000000001    0.2500000000000000    0.2353499959245031 F F F Cl-
